# Budapest Reference Connectome, all_20k snapshot
# n=1015 m=70654
# frozen copy: omits the 950 weakest edges of the hosted 71,604-edge graph
# source: braingraph.org / connectome.pitgroup.org
0	1
0	2
0	3
0	4
0	5
0	6
0	7
0	8
0	9
0	10
0	11
0	12
0	13
0	14
0	15
0	16
0	17
0	18
0	19
0	20
0	21
0	22
0	23
0	24
0	25
0	26
0	27
0	28
0	29
0	30
0	31
0	32
0	33
0	34
0	35
0	36
0	37
0	38
0	39
0	40
0	41
0	42
0	43
0	44
0	45
0	46
0	47
0	48
0	49
0	50
0	51
0	52
0	53
0	54
0	55
1	2
1	3
1	4
1	5
1	6
1	7
1	8
1	9
1	10
1	11
1	12
1	13
1	14
1	15
1	16
1	19
1	20
1	21
1	23
1	24
1	25
1	26
1	28
1	31
1	32
1	33
1	37
1	39
1	47
1	48
1	49
1	50
1	51
1	52
1	53
1	54
1	55
1	56
1	57
1	58
1	59
1	60
1	61
1	62
1	63
1	64
2	3
2	4
2	5
2	6
2	7
2	8
2	9
2	10
2	11
2	12
2	13
2	14
2	15
2	16
2	17
2	18
2	19
2	20
2	21
2	22
2	23
2	24
2	25
2	26
2	27
2	28
2	29
2	30
2	31
2	32
2	33
2	34
2	35
2	37
2	38
2	39
2	47
2	48
2	50
2	51
2	52
2	53
2	54
2	55
2	56
2	57
2	58
2	59
2	61
2	62
2	63
2	64
2	65
2	66
2	67
2	68
2	69
2	70
2	71
2	72
2	73
2	74
2	75
2	76
2	77
2	78
2	79
2	80
2	81
2	82
2	83
2	84
2	85
2	86
2	87
2	88
2	89
2	90
2	91
2	92
2	93
2	94
2	95
2	96
3	4
3	5
3	6
3	7
3	8
3	9
3	10
3	11
3	12
3	13
3	14
3	15
3	16
3	17
3	18
3	19
3	20
3	21
3	22
3	23
3	24
3	25
3	26
3	27
3	28
3	29
3	30
3	31
3	32
3	33
3	34
3	35
3	37
3	38
3	39
3	46
3	47
3	48
3	49
3	50
3	51
3	52
3	53
3	54
3	55
3	56
3	57
3	58
3	59
3	60
3	61
3	63
3	64
3	65
3	67
3	68
3	69
3	70
3	71
3	72
3	73
3	74
3	75
3	76
3	77
3	78
3	79
3	80
3	81
3	82
3	83
3	84
3	85
3	86
3	87
3	88
3	91
3	93
3	94
3	95
3	96
3	97
3	98
3	99
3	100
3	101
3	102
3	103
3	104
3	105
3	106
3	107
3	108
3	109
3	110
3	111
3	112
3	113
3	114
3	115
3	116
3	117
3	118
3	119
3	120
3	121
3	122
3	123
3	124
3	125
3	126
3	127
3	128
3	129
3	130
3	131
3	132
3	133
3	134
3	135
3	136
3	137
3	138
3	139
3	140
3	141
3	142
3	143
3	144
3	145
3	146
3	147
3	148
3	149
3	150
3	151
3	152
3	153
3	154
3	155
3	156
4	5
4	6
4	7
4	10
4	11
4	12
4	13
4	15
4	17
4	23
4	24
4	25
4	26
4	27
4	28
4	29
4	32
4	33
4	47
4	53
4	56
4	57
4	64
4	65
4	73
4	74
4	77
5	6
5	7
5	8
5	10
5	11
5	12
5	13
5	15
5	23
5	24
5	25
5	26
5	27
5	30
5	31
5	32
5	47
5	48
5	49
5	50
5	51
5	52
5	53
5	54
5	55
5	56
5	57
5	65
5	70
5	73
5	74
5	133
6	7
6	8
6	9
6	10
6	11
6	12
6	13
6	14
6	15
6	16
6	17
6	18
6	19
6	20
6	21
6	22
6	23
6	24
6	25
6	26
6	27
6	28
6	29
6	30
6	31
6	32
6	33
6	34
6	35
6	37
6	38
6	39
6	40
6	47
6	48
6	50
6	51
6	52
6	53
6	54
6	55
6	56
6	57
6	58
6	59
6	61
6	63
6	64
6	65
6	66
6	67
6	69
6	70
6	71
6	73
6	74
6	76
6	77
6	78
6	81
6	85
6	87
6	88
6	89
6	96
6	98
6	99
6	100
6	111
6	112
6	115
6	118
6	123
6	129
6	151
6	157
6	158
6	159
6	160
6	161
6	162
6	163
6	164
7	8
7	9
7	10
7	11
7	12
7	13
7	14
7	15
7	16
7	18
7	19
7	20
7	21
7	22
7	23
7	24
7	25
7	26
7	27
7	28
7	29
7	31
7	32
7	33
7	34
7	35
7	36
7	37
7	38
7	39
7	40
7	41
7	43
7	44
7	45
7	47
7	50
7	51
7	52
7	53
7	54
7	55
7	56
7	57
7	58
7	61
7	64
7	65
7	66
7	67
7	68
7	69
7	70
7	71
7	73
7	74
7	79
7	85
7	88
7	91
7	93
7	96
7	97
7	99
7	109
7	110
7	117
7	118
7	120
7	121
7	123
7	129
7	134
7	135
7	136
7	137
7	138
7	153
7	159
7	160
7	162
7	165
7	166
7	167
7	168
7	169
7	170
7	171
7	172
7	173
7	174
7	175
8	9
8	10
8	11
8	12
8	13
8	14
8	15
8	16
8	18
8	19
8	20
8	21
8	22
8	23
8	24
8	25
8	27
8	29
8	31
8	32
8	33
8	34
8	35
8	37
8	38
8	39
8	44
8	47
8	50
8	51
8	52
8	53
8	54
8	58
8	61
8	67
8	68
8	69
8	70
8	85
8	87
8	88
8	89
8	93
8	97
8	98
8	101
8	104
8	109
8	110
8	111
8	115
8	117
8	120
8	137
9	10
9	11
9	13
9	14
9	15
9	16
9	18
9	19
9	20
9	21
9	22
9	23
9	24
9	25
9	27
9	29
9	31
9	32
9	33
9	34
9	35
9	37
9	38
9	39
9	50
9	51
9	52
9	53
9	54
9	58
9	59
9	60
9	61
9	66
9	67
9	68
9	69
9	70
9	75
9	79
9	80
9	82
9	85
9	87
9	88
9	90
9	97
9	98
9	107
9	109
9	110
9	112
9	115
9	117
9	118
9	119
9	120
9	123
9	129
9	138
9	153
9	176
9	177
9	178
9	179
9	180
9	181
10	11
10	12
10	13
10	14
10	15
10	16
10	17
10	18
10	19
10	20
10	21
10	22
10	23
10	24
10	25
10	26
10	27
10	28
10	29
10	30
10	31
10	32
10	33
10	34
10	35
10	36
10	37
10	38
10	39
10	47
10	48
10	50
10	51
10	52
10	53
10	54
10	55
10	56
10	57
10	58
10	59
10	60
10	61
10	65
10	66
10	67
10	68
10	69
10	70
10	71
10	73
10	74
10	75
10	76
10	77
10	78
10	79
10	80
10	81
10	82
10	83
10	84
10	85
10	86
10	87
10	88
10	89
10	90
10	93
10	97
10	98
10	99
10	107
10	109
10	110
10	111
10	112
10	113
10	115
10	117
10	118
10	119
10	120
10	123
10	127
10	128
10	129
10	131
10	133
10	135
10	136
10	137
10	138
10	141
10	146
10	149
10	160
10	166
10	167
10	169
10	175
10	178
10	182
10	183
10	184
10	185
10	186
10	187
11	12
11	13
11	14
11	15
11	16
11	17
11	18
11	19
11	20
11	21
11	22
11	23
11	24
11	25
11	26
11	27
11	28
11	29
11	30
11	31
11	32
11	33
11	34
11	35
11	36
11	37
11	38
11	39
11	46
11	47
11	48
11	50
11	51
11	52
11	53
11	54
11	55
11	56
11	57
11	58
11	59
11	61
11	63
11	64
11	65
11	66
11	67
11	68
11	69
11	70
11	71
11	72
11	73
11	74
11	75
11	76
11	77
11	78
11	79
11	80
11	81
11	82
11	83
11	84
11	85
11	86
11	87
11	88
11	89
11	91
11	92
11	93
11	95
11	98
11	99
11	100
11	101
11	102
11	103
11	104
11	107
11	108
11	109
11	110
11	115
11	117
11	118
11	119
11	120
11	123
11	124
11	126
11	127
11	128
11	129
11	130
11	131
11	133
11	134
11	135
11	136
11	137
11	138
11	141
11	143
11	144
11	145
11	147
11	151
11	153
11	157
11	159
11	160
11	162
11	166
11	177
11	178
11	182
11	188
11	189
11	190
11	191
11	192
11	193
11	194
11	195
11	196
11	197
12	13
12	14
12	15
12	16
12	17
12	18
12	19
12	20
12	24
12	25
12	26
12	27
12	28
12	29
12	30
12	31
12	32
12	33
12	34
12	35
12	37
12	38
12	39
12	46
12	47
12	48
12	50
12	51
12	52
12	53
12	54
12	56
12	57
12	58
12	59
12	60
12	63
12	64
12	65
12	66
12	67
12	71
12	72
12	73
12	74
12	75
12	76
12	77
12	78
12	79
12	80
12	81
12	82
12	83
12	84
12	85
12	86
12	87
12	88
12	89
12	91
12	92
12	95
12	98
12	99
12	100
12	101
12	102
12	103
12	104
12	105
12	106
12	107
12	108
12	109
12	115
12	119
12	120
12	123
12	124
12	126
12	127
12	128
12	129
12	130
12	131
12	133
12	134
12	135
12	136
12	138
12	139
12	140
12	141
12	142
12	143
12	144
12	145
12	146
12	147
12	148
12	149
12	150
12	151
12	157
12	158
12	159
12	170
12	173
12	177
12	178
12	181
12	182
12	188
12	189
12	193
12	194
12	196
12	197
12	198
12	199
12	200
12	201
12	202
12	203
12	204
12	205
12	206
12	207
12	208
12	209
12	210
12	211
12	212
12	213
12	214
12	215
12	216
12	217
12	218
12	219
12	220
12	221
12	222
12	223
12	224
13	14
13	15
13	16
13	17
13	18
13	19
13	20
13	21
13	22
13	23
13	24
13	25
13	26
13	27
13	28
13	29
13	30
13	31
13	32
13	33
13	34
13	35
13	36
13	37
13	38
13	39
13	44
13	46
13	47
13	48
13	50
13	51
13	52
13	53
13	54
13	55
13	56
13	57
13	58
13	59
13	60
13	61
13	63
13	64
13	65
13	66
13	67
13	68
13	69
13	70
13	71
13	72
13	73
13	74
13	75
13	76
13	77
13	78
13	79
13	80
13	81
13	82
13	83
13	84
13	85
13	86
13	87
13	88
13	89
13	90
13	91
13	92
13	93
13	94
13	95
13	97
13	98
13	99
13	100
13	101
13	102
13	103
13	104
13	105
13	106
13	107
13	108
13	109
13	110
13	111
13	112
13	113
13	115
13	117
13	118
13	119
13	120
13	121
13	123
13	124
13	127
13	128
13	129
13	130
13	131
13	132
13	133
13	134
13	135
13	136
13	138
13	139
13	140
13	141
13	144
13	145
13	146
13	147
13	148
13	149
13	150
13	158
13	159
13	160
13	165
13	166
13	173
13	174
13	176
13	177
13	178
13	179
13	180
13	181
13	182
13	188
13	189
13	193
13	194
13	196
13	197
13	198
13	199
13	200
13	201
13	202
13	207
13	209
13	210
13	211
13	213
13	214
13	217
13	218
13	219
13	223
13	224
13	225
13	226
13	227
13	228
13	229
13	230
13	231
13	232
13	233
13	234
13	235
14	15
14	16
14	18
14	19
14	20
14	21
14	22
14	23
14	24
14	26
14	27
14	29
14	31
14	32
14	33
14	34
14	35
14	36
14	37
14	38
14	39
14	41
14	47
14	50
14	51
14	52
14	53
14	54
14	57
14	59
14	66
14	67
14	68
14	69
14	70
14	73
14	78
14	79
14	80
14	82
14	83
14	85
14	86
14	87
14	88
14	89
14	97
14	98
14	104
14	109
14	110
14	111
14	112
14	115
14	118
14	119
14	120
14	122
14	123
14	129
14	133
14	140
14	145
14	146
14	158
14	160
14	165
14	177
14	178
14	209
15	16
15	17
15	18
15	19
15	20
15	21
15	22
15	23
15	24
15	25
15	26
15	27
15	28
15	29
15	30
15	31
15	32
15	33
15	34
15	35
15	36
15	37
15	38
15	39
15	40
15	43
15	45
15	47
15	48
15	50
15	51
15	52
15	53
15	54
15	55
15	56
15	57
15	58
15	59
15	60
15	61
15	63
15	64
15	65
15	66
15	67
15	68
15	69
15	70
15	71
15	72
15	73
15	74
15	75
15	76
15	77
15	78
15	79
15	80
15	81
15	82
15	83
15	84
15	85
15	86
15	87
15	88
15	89
15	90
15	91
15	92
15	95
15	96
15	97
15	98
15	99
15	100
15	101
15	102
15	103
15	104
15	105
15	106
15	107
15	108
15	109
15	110
15	111
15	112
15	113
15	114
15	115
15	117
15	118
15	119
15	120
15	121
15	122
15	123
15	124
15	126
15	127
15	128
15	129
15	130
15	131
15	133
15	134
15	135
15	136
15	137
15	138
15	139
15	140
15	141
15	142
15	144
15	145
15	146
15	147
15	148
15	149
15	152
15	153
15	157
15	158
15	159
15	160
15	165
15	166
15	167
15	169
15	170
15	171
15	173
15	176
15	177
15	178
15	179
15	180
15	181
15	182
15	183
15	184
15	185
15	188
15	189
15	191
15	193
15	194
15	196
15	197
15	198
15	199
15	200
15	202
15	207
15	208
15	209
15	210
15	214
15	215
15	216
15	218
15	219
15	226
15	227
15	230
15	232
15	234
15	235
15	236
15	237
15	238
15	239
15	240
15	241
15	242
15	243
16	18
16	19
16	20
16	21
16	22
16	23
16	24
16	25
16	26
16	27
16	28
16	29
16	31
16	32
16	33
16	34
16	35
16	36
16	37
16	38
16	50
16	51
16	52
16	53
16	54
16	56
16	57
16	58
16	59
16	60
16	66
16	67
16	68
16	69
16	70
16	71
16	73
16	74
16	79
16	80
16	81
16	82
16	83
16	85
16	86
16	87
16	88
16	89
16	91
16	97
16	98
16	107
16	109
16	110
16	111
16	112
16	113
16	115
16	117
16	118
16	119
16	120
16	121
16	130
16	131
16	145
16	158
16	165
16	166
16	201
16	225
16	236
16	237
16	238
17	19
17	24
17	25
17	26
17	27
17	28
17	29
17	30
17	31
17	32
17	33
17	34
17	35
17	38
17	47
17	51
17	52
17	53
17	56
17	57
17	58
17	59
17	65
17	71
17	72
17	73
17	74
17	75
17	76
17	77
17	78
17	79
17	80
17	81
17	82
17	83
17	84
17	85
17	88
17	91
17	92
17	95
17	99
17	101
17	102
17	103
17	104
17	105
17	106
17	107
17	108
17	110
17	120
17	123
17	126
17	127
17	128
17	129
17	131
17	133
17	135
17	141
17	145
17	147
17	149
17	151
17	153
17	158
17	173
17	181
17	182
17	196
17	197
17	198
17	200
17	207
17	210
17	211
17	216
17	217
17	219
17	223
17	224
17	232
17	234
17	245
17	248
18	19
18	20
18	21
18	22
18	23
18	24
18	25
18	26
18	27
18	28
18	29
18	30
18	31
18	32
18	33
18	34
18	35
18	36
18	37
18	38
18	39
18	47
18	51
18	52
18	53
18	54
18	56
18	58
18	59
18	60
18	65
18	66
18	67
18	68
18	69
18	70
18	71
18	74
18	76
18	79
18	81
18	82
18	83
18	85
18	86
18	87
18	88
18	89
18	91
18	97
18	98
18	100
18	104
18	107
18	109
18	110
18	111
18	112
18	113
18	115
18	117
18	118
18	119
18	120
18	123
18	124
18	128
18	129
18	131
18	133
18	144
18	158
18	165
18	179
19	20
19	21
19	22
19	23
19	24
19	25
19	26
19	27
19	28
19	29
19	30
19	31
19	32
19	33
19	34
19	35
19	36
19	37
19	38
19	39
19	40
19	41
19	42
19	43
19	44
19	45
19	47
19	48
19	50
19	51
19	52
19	53
19	54
19	56
19	57
19	58
19	59
19	60
19	61
19	63
19	64
19	65
19	66
19	67
19	68
19	69
19	70
19	71
19	72
19	73
19	74
19	75
19	76
19	77
19	78
19	79
19	80
19	81
19	82
19	83
19	84
19	85
19	86
19	87
19	88
19	89
19	90
19	91
19	92
19	93
19	95
19	96
19	97
19	98
19	99
19	100
19	101
19	102
19	103
19	104
19	106
19	107
19	108
19	109
19	110
19	111
19	112
19	113
19	114
19	115
19	117
19	118
19	119
19	120
19	121
19	123
19	124
19	127
19	128
19	129
19	130
19	131
19	132
19	133
19	134
19	135
19	136
19	137
19	138
19	139
19	140
19	141
19	142
19	145
19	146
19	147
19	148
19	149
19	153
19	158
19	159
19	160
19	165
19	167
19	168
19	169
19	172
19	173
19	174
19	176
19	177
19	178
19	179
19	182
19	186
19	191
19	193
19	196
19	197
19	198
19	199
19	200
19	209
19	210
19	235
19	236
19	237
19	238
19	251
19	252
19	253
19	254
19	255
19	256
20	21
20	22
20	23
20	24
20	25
20	26
20	27
20	28
20	29
20	30
20	31
20	32
20	33
20	34
20	35
20	36
20	37
20	38
20	39
20	40
20	41
20	42
20	43
20	44
20	45
20	47
20	50
20	51
20	52
20	53
20	54
20	57
20	58
20	60
20	61
20	64
20	66
20	67
20	68
20	69
20	70
20	72
20	73
20	74
20	75
20	76
20	78
20	79
20	81
20	82
20	85
20	86
20	87
20	88
20	89
20	93
20	97
20	98
20	101
20	102
20	107
20	108
20	109
20	110
20	111
20	115
20	117
20	118
20	119
20	120
20	123
20	127
20	128
20	129
20	134
20	135
20	136
20	137
20	138
20	153
20	157
20	159
20	160
20	167
20	168
20	169
20	170
20	171
20	172
20	173
20	178
20	191
20	218
20	257
21	22
21	23
21	24
21	25
21	26
21	27
21	29
21	31
21	32
21	33
21	34
21	37
21	38
21	41
21	47
21	50
21	51
21	52
21	53
21	54
21	57
21	61
21	66
21	67
21	68
21	69
21	70
21	79
21	82
21	86
21	87
21	88
21	97
21	98
21	109
21	110
21	134
21	135
21	153
22	23
22	24
22	26
22	28
22	31
22	32
22	33
22	34
22	37
22	38
22	39
22	52
22	53
22	54
22	61
22	66
22	68
22	69
22	70
22	71
22	88
22	97
22	109
22	110
22	134
22	163
23	24
23	25
23	26
23	27
23	28
23	29
23	31
23	32
23	33
23	34
23	35
23	36
23	37
23	38
23	39
23	40
23	41
23	42
23	43
23	45
23	47
23	50
23	51
23	52
23	53
23	54
23	55
23	56
23	58
23	61
23	64
23	66
23	67
23	68
23	69
23	70
23	73
23	76
23	78
23	79
23	88
23	93
23	95
23	98
23	107
23	110
23	119
23	120
23	134
23	135
23	136
23	137
23	138
23	153
23	159
23	167
23	168
23	169
23	171
23	172
23	173
23	191
23	197
23	204
23	222
23	259
24	25
24	26
24	27
24	28
24	29
24	30
24	31
24	32
24	33
24	34
24	35
24	36
24	37
24	38
24	39
24	40
24	41
24	43
24	45
24	46
24	47
24	48
24	51
24	52
24	53
24	54
24	56
24	57
24	58
24	59
24	60
24	61
24	62
24	63
24	64
24	65
24	66
24	67
24	68
24	69
24	70
24	71
24	72
24	73
24	74
24	75
24	76
24	77
24	78
24	79
24	80
24	81
24	82
24	83
24	84
24	85
24	86
24	87
24	88
24	89
24	90
24	91
24	92
24	93
24	94
24	95
24	96
24	97
24	99
24	100
24	101
24	102
24	103
24	104
24	105
24	106
24	107
24	108
24	109
24	110
24	111
24	112
24	113
24	114
24	115
24	116
24	117
24	118
24	119
24	120
24	121
24	122
24	123
24	124
24	125
24	126
24	127
24	128
24	129
24	130
24	131
24	133
24	134
24	135
24	136
24	138
24	139
24	140
24	141
24	142
24	143
24	144
24	145
24	146
24	147
24	148
24	149
24	150
24	151
24	152
24	153
24	156
24	157
24	158
24	159
24	165
24	170
24	171
24	173
24	177
24	178
24	180
24	181
24	182
24	188
24	192
24	193
24	194
24	195
24	196
24	197
24	198
24	199
24	200
24	202
24	203
24	204
24	205
24	206
24	207
24	209
24	213
24	214
24	215
24	216
24	217
24	219
24	220
24	221
24	222
24	223
24	224
24	225
24	227
24	228
24	230
24	231
24	233
24	234
24	235
24	244
24	245
24	247
24	248
24	251
24	252
24	260
24	261
24	262
24	263
24	264
24	265
24	266
24	267
24	268
24	269
24	270
24	271
24	272
24	273
24	274
24	275
24	276
24	277
24	278
24	279
24	280
24	281
24	282
24	283
25	26
25	27
25	28
25	29
25	30
25	31
25	32
25	33
25	34
25	35
25	37
25	38
25	39
25	46
25	47
25	48
25	51
25	52
25	53
25	54
25	56
25	57
25	58
25	59
25	61
25	63
25	64
25	65
25	67
25	68
25	70
25	71
25	72
25	73
25	74
25	75
25	76
25	77
25	78
25	79
25	80
25	81
25	82
25	83
25	84
25	85
25	86
25	87
25	88
25	91
25	92
25	93
25	96
25	98
25	99
25	100
25	101
25	102
25	103
25	104
25	105
25	106
25	107
25	108
25	109
25	110
25	111
25	112
25	115
25	117
25	118
25	119
25	120
25	123
25	127
25	128
25	129
25	130
25	131
25	133
25	141
25	142
25	143
25	144
25	145
25	147
25	148
25	151
25	152
25	153
25	160
25	170
25	180
25	188
25	191
25	195
25	196
25	198
25	200
25	203
25	204
25	205
25	207
25	217
25	220
25	223
25	228
25	230
25	234
25	235
25	245
25	248
25	261
25	284
25	285
25	286
25	287
25	288
26	27
26	28
26	29
26	30
26	31
26	32
26	33
26	34
26	37
26	38
26	39
26	46
26	47
26	50
26	52
26	53
26	54
26	56
26	57
26	58
26	59
26	61
26	65
26	66
26	69
26	70
26	71
26	72
26	73
26	74
26	75
26	76
26	77
26	78
26	79
26	80
26	81
26	82
26	83
26	84
26	85
26	86
26	87
26	88
26	91
26	92
26	99
26	100
26	101
26	102
26	103
26	104
26	105
26	106
26	107
26	108
26	109
26	110
26	112
26	115
26	118
26	120
26	121
26	126
26	127
26	128
26	129
26	130
26	138
26	141
26	142
26	144
26	145
26	147
26	148
26	149
26	153
26	159
26	184
26	188
26	196
26	198
26	199
26	204
26	207
26	211
26	212
26	217
26	220
26	223
26	224
26	230
26	245
26	248
26	251
26	271
26	291
27	28
27	29
27	30
27	31
27	32
27	33
27	34
27	35
27	37
27	38
27	39
27	46
27	47
27	48
27	51
27	52
27	53
27	54
27	56
27	57
27	58
27	59
27	61
27	63
27	65
27	66
27	67
27	69
27	70
27	71
27	72
27	73
27	74
27	75
27	76
27	77
27	78
27	79
27	80
27	81
27	82
27	83
27	84
27	85
27	86
27	87
27	88
27	89
27	90
27	91
27	92
27	93
27	94
27	96
27	98
27	99
27	100
27	101
27	102
27	103
27	104
27	105
27	106
27	107
27	108
27	109
27	110
27	111
27	112
27	113
27	114
27	115
27	118
27	119
27	120
27	121
27	123
27	124
27	127
27	128
27	129
27	130
27	131
27	134
27	135
27	138
27	141
27	142
27	143
27	144
27	145
27	146
27	147
27	148
27	152
27	153
27	157
27	159
27	160
27	173
27	178
27	182
27	187
27	188
27	195
27	196
27	197
27	198
27	199
27	200
27	202
27	203
27	204
27	209
27	211
27	212
27	213
27	217
27	219
27	220
27	221
27	223
27	225
27	228
27	230
27	239
27	245
27	248
27	261
27	271
27	288
27	289
27	290
27	300
27	309
27	310
27	311
27	312
27	313
27	314
28	29
28	30
28	31
28	32
28	33
28	34
28	35
28	37
28	38
28	39
28	40
28	45
28	46
28	47
28	48
28	50
28	51
28	52
28	53
28	56
28	57
28	58
28	59
28	60
28	61
28	63
28	64
28	65
28	66
28	67
28	71
28	72
28	73
28	74
28	75
28	76
28	77
28	78
28	79
28	80
28	81
28	82
28	84
28	85
28	86
28	87
28	88
28	89
28	90
28	91
28	92
28	95
28	96
28	99
28	100
28	101
28	102
28	103
28	104
28	105
28	106
28	107
28	108
28	109
28	110
28	112
28	115
28	118
28	120
28	121
28	123
28	124
28	126
28	127
28	128
28	129
28	130
28	131
28	133
28	134
28	135
28	136
28	138
28	141
28	142
28	143
28	144
28	145
28	146
28	147
28	148
28	149
28	153
28	157
28	158
28	166
28	173
28	177
28	178
28	180
28	182
28	188
28	189
28	196
28	197
28	198
28	199
28	200
28	201
28	202
28	204
28	206
28	208
28	209
28	215
28	217
28	223
28	224
28	229
28	270
28	300
28	388
29	30
29	31
29	32
29	33
29	34
29	35
29	36
29	37
29	38
29	39
29	40
29	43
29	44
29	45
29	47
29	48
29	50
29	51
29	52
29	53
29	54
29	56
29	57
29	58
29	59
29	60
29	61
29	63
29	64
29	65
29	66
29	67
29	68
29	69
29	70
29	71
29	72
29	73
29	74
29	75
29	76
29	77
29	78
29	79
29	80
29	81
29	82
29	83
29	84
29	85
29	86
29	87
29	88
29	89
29	90
29	91
29	92
29	93
29	95
29	96
29	97
29	98
29	99
29	100
29	101
29	102
29	103
29	104
29	105
29	106
29	107
29	108
29	109
29	110
29	111
29	112
29	113
29	114
29	115
29	116
29	117
29	118
29	119
29	120
29	121
29	122
29	123
29	124
29	126
29	127
29	128
29	129
29	130
29	131
29	132
29	133
29	134
29	135
29	136
29	138
29	139
29	140
29	141
29	142
29	143
29	144
29	145
29	146
29	147
29	148
29	149
29	150
29	152
29	153
29	157
29	158
29	159
29	160
29	165
29	166
29	167
29	173
29	174
29	176
29	177
29	178
29	179
29	180
29	181
29	182
29	183
29	184
29	188
29	189
29	191
29	193
29	194
29	196
29	197
29	198
29	199
29	200
29	201
29	202
29	203
29	207
29	209
29	210
29	211
29	214
29	215
29	216
29	217
29	218
29	222
29	223
29	225
29	226
29	227
29	229
29	232
29	234
29	235
29	237
29	238
29	239
29	240
29	242
29	243
29	248
29	249
29	251
29	256
29	257
29	265
29	271
29	294
29	329
29	333
29	343
29	345
29	370
29	393
29	400
29	401
30	31
30	32
30	33
30	35
30	38
30	39
30	43
30	45
30	47
30	51
30	52
30	53
30	56
30	57
30	58
30	59
30	60
30	61
30	65
30	71
30	73
30	74
30	75
30	76
30	77
30	78
30	79
30	80
30	81
30	82
30	84
30	85
30	88
30	91
30	92
30	99
30	102
30	103
30	104
30	108
30	118
30	120
30	126
30	127
30	128
30	129
30	131
30	134
30	145
30	153
30	182
30	215
30	227
31	32
31	33
31	34
31	35
31	36
31	37
31	38
31	39
31	47
31	50
31	51
31	52
31	53
31	54
31	57
31	58
31	59
31	60
31	63
31	64
31	65
31	66
31	67
31	69
31	71
31	72
31	73
31	74
31	75
31	76
31	77
31	78
31	79
31	80
31	81
31	82
31	83
31	84
31	85
31	86
31	87
31	88
31	89
31	91
31	92
31	93
31	96
31	98
31	99
31	101
31	102
31	103
31	104
31	105
31	106
31	107
31	108
31	109
31	110
31	111
31	113
31	115
31	118
31	119
31	120
31	121
31	123
31	124
31	126
31	127
31	128
31	129
31	130
31	131
31	133
31	134
31	137
31	138
31	141
31	142
31	144
31	145
31	146
31	148
31	159
31	160
31	176
31	177
31	182
31	196
31	201
31	207
31	210
31	218
31	219
31	226
31	234
31	236
31	239
31	245
31	262
32	33
32	34
32	35
32	36
32	37
32	38
32	39
32	47
32	48
32	50
32	51
32	52
32	53
32	54
32	56
32	57
32	58
32	59
32	60
32	63
32	64
32	65
32	66
32	67
32	68
32	69
32	70
32	71
32	72
32	73
32	74
32	75
32	76
32	77
32	78
32	79
32	80
32	81
32	82
32	83
32	85
32	86
32	87
32	88
32	89
32	91
32	92
32	96
32	98
32	99
32	100
32	101
32	102
32	103
32	107
32	109
32	110
32	111
32	112
32	114
32	115
32	117
32	118
32	119
32	120
32	121
32	122
32	123
32	124
32	127
32	128
32	129
32	130
32	131
32	133
32	140
32	142
32	144
32	146
32	147
32	160
32	165
32	166
32	173
32	176
32	177
32	182
32	197
32	198
32	202
32	210
32	214
32	215
32	225
32	235
32	238
32	245
33	34
33	35
33	36
33	37
33	38
33	39
33	40
33	47
33	48
33	50
33	51
33	52
33	53
33	54
33	56
33	57
33	58
33	59
33	60
33	61
33	63
33	64
33	65
33	66
33	67
33	68
33	69
33	70
33	71
33	72
33	73
33	74
33	75
33	76
33	77
33	78
33	79
33	80
33	81
33	82
33	83
33	84
33	85
33	86
33	87
33	88
33	89
33	90
33	91
33	93
33	95
33	97
33	98
33	99
33	100
33	101
33	102
33	103
33	104
33	105
33	107
33	109
33	110
33	111
33	112
33	113
33	114
33	115
33	116
33	117
33	118
33	119
33	120
33	121
33	122
33	123
33	124
33	127
33	128
33	129
33	130
33	131
33	132
33	133
33	134
33	135
33	138
33	140
33	145
33	146
33	147
33	150
33	158
33	159
33	160
33	165
33	166
33	167
33	173
33	174
33	176
33	177
33	178
33	179
33	180
33	182
33	186
33	193
33	194
33	197
33	198
33	200
33	201
33	202
33	210
33	218
33	223
33	225
33	226
33	236
33	237
33	238
33	262
33	300
33	352
33	406
34	35
34	36
34	37
34	38
34	39
34	43
34	47
34	48
34	50
34	51
34	52
34	53
34	54
34	56
34	57
34	58
34	59
34	60
34	61
34	63
34	64
34	65
34	66
34	67
34	68
34	69
34	70
34	71
34	72
34	73
34	74
34	75
34	76
34	77
34	78
34	79
34	80
34	81
34	82
34	83
34	84
34	85
34	86
34	87
34	88
34	89
34	90
34	91
34	93
34	97
34	98
34	99
34	100
34	101
34	102
34	103
34	104
34	105
34	106
34	107
34	108
34	109
34	110
34	111
34	112
34	113
34	114
34	115
34	116
34	117
34	118
34	119
34	120
34	121
34	122
34	123
34	124
34	126
34	127
34	128
34	129
34	130
34	131
34	132
34	133
34	134
34	136
34	138
34	141
34	142
34	144
34	145
34	146
34	147
34	150
34	151
34	158
34	159
34	160
34	165
34	166
34	167
34	176
34	177
34	178
34	179
34	180
34	181
34	182
34	184
34	185
34	186
34	194
34	196
34	197
34	198
34	199
34	200
34	201
34	210
34	214
34	215
34	217
34	218
34	223
34	225
34	229
34	232
34	235
34	236
34	237
34	238
34	242
34	248
34	251
34	253
34	357
34	376
34	395
34	396
34	400
35	36
35	37
35	38
35	39
35	40
35	42
35	43
35	44
35	45
35	47
35	48
35	50
35	51
35	52
35	53
35	54
35	57
35	58
35	59
35	60
35	61
35	63
35	64
35	66
35	67
35	69
35	71
35	72
35	73
35	74
35	75
35	76
35	77
35	78
35	79
35	80
35	81
35	82
35	83
35	84
35	85
35	86
35	87
35	88
35	89
35	90
35	91
35	92
35	93
35	95
35	96
35	97
35	98
35	99
35	100
35	101
35	102
35	103
35	104
35	105
35	107
35	108
35	109
35	110
35	111
35	112
35	113
35	114
35	115
35	116
35	117
35	118
35	119
35	120
35	121
35	122
35	123
35	124
35	126
35	127
35	128
35	129
35	130
35	131
35	132
35	133
35	134
35	135
35	136
35	138
35	139
35	140
35	141
35	145
35	146
35	147
35	149
35	150
35	153
35	157
35	158
35	159
35	160
35	165
35	166
35	167
35	169
35	171
35	172
35	173
35	176
35	177
35	178
35	179
35	180
35	181
35	182
35	183
35	188
35	191
35	193
35	194
35	196
35	197
35	198
35	199
35	200
35	201
35	202
35	207
35	209
35	210
35	214
35	215
35	217
35	218
35	222
35	225
35	226
35	227
35	229
35	232
35	234
35	235
35	236
35	237
35	238
35	239
35	240
35	242
35	245
35	248
35	249
35	251
35	253
35	265
35	269
35	289
35	290
35	329
35	330
35	335
35	339
35	354
35	369
35	370
35	375
35	393
35	395
35	396
35	409
36	37
36	38
36	39
36	40
36	41
36	42
36	43
36	44
36	45
36	47
36	48
36	52
36	53
36	54
36	58
36	59
36	60
36	61
36	63
36	64
36	65
36	67
36	70
36	71
36	72
36	74
36	75
36	76
36	77
36	78
36	79
36	80
36	82
36	83
36	85
36	86
36	87
36	88
36	89
36	90
36	91
36	92
36	93
36	94
36	95
36	99
36	100
36	101
36	102
36	103
36	104
36	107
36	109
36	110
36	111
36	112
36	113
36	115
36	116
36	117
36	118
36	119
36	120
36	121
36	122
36	123
36	124
36	125
36	126
36	127
36	128
36	129
36	130
36	131
36	132
36	133
36	134
36	135
36	136
36	137
36	138
36	139
36	140
36	141
36	143
36	144
36	145
36	146
36	147
36	148
36	149
36	150
36	151
36	152
36	153
36	157
36	158
36	159
36	160
36	165
36	166
36	167
36	168
36	169
36	170
36	171
36	172
36	173
36	176
36	177
36	178
36	179
36	180
36	181
36	182
36	183
36	188
36	190
36	191
36	193
36	194
36	196
36	197
36	198
36	199
36	200
36	201
36	202
36	204
36	205
36	207
36	209
36	210
36	214
36	215
36	217
36	218
36	222
36	225
36	226
36	227
36	228
36	229
36	232
36	235
36	236
36	237
36	238
36	239
36	240
36	242
36	243
36	245
36	248
36	249
36	250
36	251
36	257
36	265
36	266
36	267
36	271
36	289
36	290
36	293
36	316
36	335
36	343
36	344
36	362
36	369
36	370
36	393
36	394
36	395
36	396
36	397
36	407
36	408
36	409
36	411
36	412
37	38
37	39
37	40
37	41
37	42
37	43
37	44
37	45
37	47
37	50
37	51
37	52
37	53
37	54
37	56
37	58
37	59
37	61
37	64
37	65
37	68
37	69
37	70
37	71
37	72
37	74
37	76
37	78
37	80
37	81
37	82
37	83
37	84
37	85
37	86
37	87
37	88
37	89
37	93
37	95
37	96
37	99
37	102
37	105
37	107
37	109
37	112
37	115
37	118
37	119
37	123
37	127
37	128
37	134
37	135
37	136
37	137
37	138
37	145
37	149
37	153
37	156
37	158
37	159
37	160
37	163
37	164
37	167
37	168
37	169
37	170
37	171
37	172
37	173
37	175
37	177
37	178
37	187
37	191
37	197
37	201
37	222
37	248
37	256
37	257
37	258
37	282
37	289
37	300
37	308
37	373
37	387
37	388
37	392
37	419
37	444
37	446
37	459
37	460
37	461
37	462
37	463
37	464
37	465
37	466
38	39
38	40
38	41
38	42
38	43
38	44
38	45
38	47
38	48
38	51
38	52
38	53
38	54
38	56
38	57
38	58
38	59
38	60
38	61
38	63
38	64
38	65
38	66
38	67
38	70
38	71
38	72
38	73
38	74
38	75
38	76
38	77
38	78
38	79
38	80
38	81
38	82
38	83
38	84
38	85
38	86
38	87
38	88
38	89
38	90
38	91
38	93
38	94
38	95
38	96
38	97
38	99
38	100
38	101
38	102
38	103
38	104
38	105
38	106
38	107
38	109
38	110
38	111
38	112
38	113
38	115
38	118
38	119
38	120
38	121
38	123
38	124
38	127
38	128
38	129
38	131
38	132
38	133
38	134
38	135
38	136
38	137
38	138
38	140
38	144
38	145
38	146
38	147
38	149
38	150
38	153
38	158
38	159
38	160
38	163
38	166
38	167
38	168
38	169
38	170
38	171
38	172
38	173
38	176
38	177
38	178
38	179
38	180
38	181
38	182
38	187
38	191
38	196
38	197
38	198
38	200
38	201
38	202
38	203
38	206
38	207
38	209
38	210
38	214
38	215
38	218
38	222
38	225
38	226
38	235
38	238
38	239
38	245
38	248
38	265
38	266
38	282
38	283
38	329
38	339
38	374
38	376
38	393
38	465
39	40
39	41
39	42
39	43
39	44
39	45
39	47
39	48
39	51
39	52
39	53
39	54
39	56
39	58
39	59
39	60
39	61
39	63
39	64
39	67
39	70
39	71
39	72
39	73
39	74
39	75
39	76
39	77
39	78
39	79
39	80
39	81
39	82
39	83
39	84
39	85
39	86
39	87
39	88
39	89
39	90
39	91
39	92
39	93
39	94
39	95
39	96
39	99
39	100
39	101
39	102
39	103
39	104
39	105
39	106
39	107
39	109
39	110
39	111
39	112
39	113
39	114
39	115
39	116
39	117
39	118
39	119
39	120
39	121
39	122
39	123
39	124
39	126
39	127
39	128
39	129
39	130
39	131
39	132
39	133
39	134
39	135
39	136
39	137
39	138
39	140
39	144
39	145
39	146
39	147
39	149
39	152
39	153
39	157
39	158
39	159
39	160
39	165
39	166
39	167
39	168
39	169
39	170
39	171
39	172
39	173
39	176
39	177
39	178
39	179
39	180
39	181
39	182
39	184
39	188
39	189
39	190
39	191
39	193
39	194
39	196
39	197
39	198
39	199
39	200
39	202
39	205
39	207
39	209
39	210
39	212
39	214
39	217
39	218
39	222
39	225
39	229
39	232
39	234
39	235
39	236
39	237
39	238
39	240
39	242
39	245
39	248
39	256
39	257
39	265
39	282
39	288
39	289
39	308
39	339
39	344
39	354
39	375
39	376
39	394
39	395
39	396
39	399
40	41
40	42
40	43
40	44
40	45
40	47
40	51
40	52
40	53
40	54
40	58
40	59
40	60
40	61
40	63
40	64
40	70
40	71
40	72
40	74
40	75
40	76
40	77
40	78
40	79
40	80
40	82
40	83
40	85
40	87
40	88
40	89
40	90
40	91
40	92
40	93
40	94
40	95
40	96
40	99
40	100
40	101
40	102
40	103
40	104
40	105
40	107
40	115
40	117
40	118
40	119
40	120
40	121
40	122
40	123
40	124
40	126
40	127
40	128
40	129
40	130
40	131
40	132
40	133
40	134
40	135
40	136
40	137
40	138
40	141
40	144
40	145
40	146
40	147
40	148
40	149
40	151
40	152
40	153
40	157
40	158
40	159
40	160
40	165
40	166
40	167
40	168
40	169
40	170
40	171
40	172
40	173
40	176
40	177
40	178
40	179
40	180
40	181
40	182
40	188
40	189
40	191
40	194
40	196
40	197
40	198
40	200
40	201
40	202
40	204
40	205
40	207
40	209
40	210
40	215
40	217
40	218
40	222
40	224
40	226
40	227
40	228
40	232
40	235
40	236
40	237
40	238
40	239
40	240
40	245
40	248
40	249
40	251
40	257
40	258
40	271
40	290
40	293
40	343
40	361
40	369
40	373
40	393
40	395
40	399
40	490
41	42
41	43
41	44
41	45
41	46
41	52
41	53
41	54
41	61
41	63
41	64
41	70
41	90
41	91
41	92
41	93
41	94
41	95
41	96
41	107
41	118
41	120
41	125
41	126
41	127
41	130
41	131
41	134
41	135
41	136
41	137
41	138
41	142
41	143
41	144
41	149
41	151
41	152
41	153
41	156
41	157
41	158
41	159
41	160
41	164
41	167
41	168
41	169
41	170
41	171
41	172
41	173
41	180
41	188
41	191
41	192
41	196
41	197
41	200
41	205
41	207
41	209
41	212
41	213
41	217
41	218
41	222
41	228
41	229
41	230
41	239
41	240
41	246
41	248
41	255
41	256
41	257
41	259
41	261
41	262
41	264
41	267
41	276
41	287
41	290
41	324
41	325
41	335
41	341
41	354
41	362
41	363
41	384
41	387
41	388
41	393
41	403
41	419
41	446
41	463
41	465
41	486
41	493
42	43
42	44
42	45
42	46
42	47
42	49
42	52
42	53
42	54
42	61
42	62
42	63
42	64
42	70
42	93
42	94
42	95
42	96
42	112
42	115
42	118
42	119
42	124
42	126
42	130
42	131
42	133
42	134
42	135
42	136
42	137
42	138
42	139
42	140
42	141
42	142
42	143
42	144
42	145
42	146
42	147
42	148
42	149
42	151
42	153
42	159
42	160
42	163
42	164
42	166
42	167
42	168
42	169
42	170
42	171
42	172
42	177
42	180
42	181
42	188
42	189
42	191
42	193
42	194
42	195
42	196
42	197
42	200
42	205
42	207
42	208
42	209
42	211
42	212
42	213
42	214
42	215
42	219
42	220
42	222
42	224
42	228
42	229
42	230
42	231
42	240
42	248
42	252
42	255
42	256
42	257
42	259
42	263
42	264
42	271
42	274
42	276
42	286
42	295
42	297
42	310
42	322
42	324
42	325
42	335
42	336
42	338
42	339
42	340
42	341
42	354
42	357
42	358
42	369
42	387
42	393
42	396
42	403
42	419
42	446
42	463
42	465
42	483
42	488
43	44
43	45
43	46
43	52
43	53
43	54
43	60
43	61
43	63
43	64
43	70
43	71
43	75
43	76
43	77
43	78
43	79
43	80
43	84
43	85
43	86
43	87
43	88
43	89
43	90
43	91
43	93
43	95
43	101
43	102
43	108
43	115
43	118
43	120
43	123
43	127
43	128
43	129
43	130
43	131
43	133
43	134
43	135
43	136
43	137
43	138
43	139
43	140
43	141
43	142
43	143
43	144
43	145
43	146
43	147
43	148
43	149
43	150
43	151
43	152
43	153
43	158
43	159
43	160
43	166
43	167
43	168
43	169
43	170
43	171
43	172
43	173
43	176
43	178
43	180
43	181
43	182
43	183
43	185
43	189
43	191
43	192
43	193
43	194
43	195
43	196
43	197
43	200
43	206
43	208
43	209
43	210
43	211
43	212
43	213
43	214
43	215
43	216
43	217
43	218
43	219
43	222
43	230
43	231
43	232
43	234
43	235
43	239
43	240
43	248
43	256
43	257
43	262
43	263
43	264
43	265
43	266
43	267
43	270
43	271
43	276
43	300
43	310
43	323
43	324
43	325
43	328
43	329
43	330
43	332
43	336
43	338
43	341
43	342
43	343
43	344
43	347
43	353
43	355
43	358
43	364
43	365
43	366
43	368
43	369
43	375
43	376
43	378
43	384
43	393
43	395
43	398
43	399
43	410
43	425
44	45
44	46
44	47
44	52
44	53
44	54
44	58
44	60
44	61
44	62
44	63
44	64
44	70
44	74
44	75
44	76
44	77
44	89
44	90
44	91
44	93
44	94
44	95
44	96
44	107
44	111
44	118
44	120
44	123
44	126
44	129
44	130
44	131
44	133
44	134
44	135
44	136
44	137
44	138
44	139
44	140
44	141
44	142
44	143
44	144
44	145
44	146
44	147
44	148
44	149
44	150
44	151
44	152
44	153
44	158
44	159
44	160
44	167
44	168
44	169
44	170
44	171
44	172
44	173
44	178
44	180
44	181
44	184
44	187
44	189
44	191
44	193
44	194
44	195
44	196
44	197
44	198
44	200
44	203
44	204
44	209
44	210
44	211
44	212
44	213
44	214
44	215
44	216
44	217
44	218
44	219
44	220
44	221
44	222
44	223
44	224
44	228
44	230
44	231
44	232
44	233
44	234
44	235
44	241
44	242
44	244
44	247
44	248
44	250
44	253
44	255
44	256
44	257
44	259
44	262
44	264
44	265
44	266
44	267
44	270
44	271
44	274
44	276
44	280
44	286
44	291
44	297
44	300
44	305
44	310
44	318
44	320
44	323
44	324
44	325
44	329
44	332
44	336
44	341
44	342
44	343
44	344
44	354
44	355
44	358
44	361
44	363
44	364
44	366
44	368
44	376
44	383
44	384
44	388
44	389
44	395
44	399
44	400
44	403
44	412
44	415
44	435
44	446
44	448
44	482
44	483
44	486
44	487
44	488
44	495
44	496
44	497
44	498
44	499
44	500
44	501
44	502
44	503
45	46
45	47
45	50
45	52
45	53
45	54
45	55
45	58
45	59
45	60
45	61
45	63
45	64
45	70
45	71
45	75
45	77
45	78
45	79
45	81
45	85
45	88
45	89
45	90
45	91
45	92
45	93
45	94
45	95
45	101
45	102
45	104
45	118
45	120
45	127
45	129
45	130
45	131
45	133
45	134
45	135
45	136
45	137
45	138
45	139
45	140
45	141
45	142
45	143
45	144
45	145
45	146
45	147
45	148
45	149
45	150
45	151
45	152
45	153
45	158
45	159
45	160
45	167
45	168
45	169
45	170
45	171
45	172
45	173
45	174
45	176
45	177
45	178
45	180
45	181
45	184
45	185
45	191
45	192
45	193
45	194
45	195
45	196
45	197
45	198
45	200
45	201
45	203
45	204
45	207
45	209
45	210
45	211
45	212
45	213
45	214
45	215
45	216
45	217
45	218
45	219
45	220
45	222
45	224
45	228
45	230
45	231
45	232
45	233
45	234
45	235
45	240
45	242
45	244
45	247
45	248
45	249
45	250
45	253
45	256
45	257
45	259
45	260
45	261
45	262
45	264
45	265
45	266
45	267
45	270
45	271
45	274
45	276
45	284
45	286
45	288
45	291
45	293
45	297
45	299
45	300
45	302
45	314
45	315
45	323
45	325
45	332
45	340
45	341
45	342
45	343
45	344
45	353
45	354
45	358
45	361
45	364
45	365
45	366
45	368
45	369
45	375
45	376
45	384
45	393
45	395
45	398
45	399
45	400
45	412
45	432
45	488
45	490
45	504
46	47
46	48
46	49
46	50
46	51
46	52
46	53
46	55
46	58
46	59
46	62
46	63
46	64
46	65
46	71
46	72
46	75
46	76
46	77
46	78
46	82
46	90
46	91
46	92
46	94
46	95
46	96
46	99
46	101
46	124
46	126
46	127
46	130
46	131
46	132
46	133
46	137
46	138
46	139
46	140
46	141
46	142
46	143
46	144
46	145
46	146
46	147
46	148
46	149
46	150
46	151
46	152
46	153
46	158
46	160
46	162
46	167
46	168
46	169
46	170
46	171
46	172
46	173
46	174
46	178
46	179
46	180
46	181
46	183
46	184
46	186
46	187
46	188
46	189
46	191
46	192
46	193
46	194
46	195
46	196
46	197
46	198
46	200
46	203
46	204
46	205
46	207
46	208
46	209
46	210
46	211
46	212
46	213
46	214
46	215
46	216
46	217
46	218
46	219
46	220
46	221
46	222
46	223
46	228
46	229
46	230
46	231
46	232
46	233
46	234
46	235
46	239
46	240
46	242
46	243
46	244
46	245
46	246
46	247
46	248
46	250
46	255
46	256
46	257
46	259
46	261
46	262
46	263
46	264
46	265
46	266
46	267
46	268
46	269
46	270
46	271
46	272
46	273
46	274
46	275
46	276
46	284
46	286
46	287
46	288
46	291
46	294
46	295
46	296
46	297
46	298
46	299
46	300
46	301
46	302
46	303
46	304
46	305
46	307
46	310
46	311
46	312
46	313
46	314
46	315
46	322
46	323
46	324
46	325
46	326
46	327
46	328
46	330
46	331
46	332
46	335
46	339
46	341
46	342
46	343
46	344
46	346
46	347
46	348
46	349
46	351
46	353
46	354
46	355
46	357
46	358
46	359
46	363
46	364
46	365
46	366
46	368
46	369
46	370
46	372
46	374
46	376
46	378
46	380
46	383
46	384
46	389
46	390
46	391
46	393
46	395
46	396
46	399
46	403
46	409
46	412
46	415
46	418
46	421
46	424
46	428
46	429
46	430
46	431
46	432
46	433
46	435
46	448
46	486
46	487
46	498
46	503
46	504
46	513
46	524
46	528
46	529
46	533
46	548
46	551
46	559
46	564
46	573
47	48
47	49
47	50
47	51
47	52
47	53
47	54
47	55
47	56
47	57
47	58
47	59
47	60
47	61
47	63
47	64
47	65
47	67
47	71
47	72
47	73
47	74
47	75
47	76
47	77
47	78
47	79
47	80
47	81
47	82
47	83
47	84
47	85
47	86
47	87
47	88
47	89
47	90
47	91
47	92
47	93
47	94
47	95
47	96
47	98
47	99
47	100
47	101
47	102
47	103
47	104
47	105
47	106
47	107
47	108
47	109
47	110
47	111
47	112
47	113
47	114
47	115
47	116
47	117
47	118
47	119
47	120
47	121
47	122
47	123
47	124
47	125
47	126
47	127
47	128
47	129
47	130
47	131
47	133
47	134
47	135
47	138
47	139
47	140
47	141
47	142
47	143
47	144
47	145
47	146
47	147
47	148
47	149
47	151
47	152
47	153
47	157
47	158
47	159
47	160
47	165
47	166
47	167
47	169
47	173
47	174
47	176
47	177
47	178
47	181
47	182
47	188
47	189
47	192
47	193
47	194
47	196
47	197
47	198
47	199
47	200
47	202
47	203
47	204
47	205
47	206
47	207
47	208
47	209
47	211
47	212
47	213
47	214
47	215
47	217
47	219
47	220
47	221
47	223
47	225
47	227
47	228
47	229
47	230
47	234
47	235
47	236
47	240
47	244
47	245
47	246
47	248
47	251
47	252
47	255
47	256
47	260
47	261
47	263
47	264
47	270
47	271
47	276
47	284
47	287
47	288
47	291
47	292
47	293
47	299
47	300
47	302
47	308
47	311
47	315
47	317
47	328
47	333
47	335
47	353
47	369
47	374
48	49
48	50
48	51
48	52
48	53
48	55
48	58
48	59
48	61
48	62
48	63
48	64
48	71
48	72
48	74
48	75
48	76
48	77
48	78
48	79
48	80
48	81
48	82
48	85
48	86
48	87
48	88
48	89
48	91
48	92
48	93
48	94
48	95
48	99
48	100
48	101
48	102
48	103
48	104
48	105
48	107
48	108
48	110
48	112
48	115
48	118
48	119
48	120
48	121
48	123
48	124
48	125
48	126
48	127
48	128
48	129
48	130
48	131
48	133
48	134
48	139
48	141
48	142
48	143
48	144
48	145
48	146
48	147
48	151
48	152
48	153
48	157
48	159
48	160
48	162
48	174
48	177
48	178
48	182
48	183
48	188
48	189
48	191
48	192
48	193
48	198
48	199
48	200
48	201
48	202
48	203
48	204
48	205
48	206
48	207
48	208
48	209
48	228
48	229
48	230
48	240
48	246
48	252
48	254
48	260
48	263
48	268
48	269
48	276
48	286
48	287
48	309
48	317
48	321
48	322
48	324
48	331
48	333
48	354
48	355
48	374
48	393
49	50
49	51
49	52
49	53
49	55
49	59
49	62
49	63
49	64
49	71
49	74
49	75
49	76
49	78
49	79
49	80
49	85
49	91
49	92
49	94
49	95
49	123
49	126
49	127
49	128
49	130
49	131
49	138
49	143
49	144
49	151
49	152
49	153
49	162
49	169
49	174
49	180
49	181
49	182
49	188
49	189
49	202
49	204
49	205
49	207
49	209
49	219
49	221
49	233
49	244
49	259
49	270
49	273
49	276
49	288
49	298
49	299
49	301
49	302
49	311
49	315
49	328
49	331
49	333
49	346
49	349
49	351
49	352
49	353
49	354
49	355
49	359
49	363
49	369
49	383
49	391
49	428
49	435
49	443
49	449
49	504
49	534
49	536
49	538
49	541
49	542
49	543
49	548
49	549
49	550
49	552
49	554
49	555
49	556
49	587
49	591
49	593
49	597
49	608
50	51
50	52
50	53
50	54
50	55
50	59
50	62
50	63
50	64
50	78
50	87
50	91
50	94
50	95
50	130
50	136
50	141
50	144
50	145
50	148
50	152
50	153
50	162
50	164
50	174
50	188
50	193
50	197
50	204
50	217
50	219
50	221
50	222
50	234
50	244
50	246
50	247
50	248
50	259
50	270
50	273
50	276
50	298
50	299
50	301
50	303
50	306
50	311
50	315
50	326
50	331
50	351
50	353
50	354
50	355
50	359
50	383
50	384
50	428
50	435
50	443
50	449
50	504
50	524
50	534
50	536
50	538
50	542
50	543
50	549
50	550
50	552
50	553
50	556
50	587
50	591
50	593
50	597
51	52
51	53
51	54
51	55
51	58
51	59
51	61
51	62
51	63
51	64
51	65
51	67
51	69
51	71
51	73
51	74
51	75
51	76
51	77
51	78
51	79
51	80
51	81
51	82
51	83
51	84
51	85
51	86
51	88
51	89
51	91
51	92
51	94
51	95
51	99
51	100
51	101
51	102
51	103
51	104
51	107
51	108
51	109
51	110
51	112
51	115
51	118
51	120
51	123
51	124
51	125
51	126
51	127
51	128
51	129
51	130
51	131
51	135
51	137
51	138
51	140
51	142
51	143
51	144
51	145
51	146
51	148
51	151
51	152
51	153
51	162
51	164
51	173
51	174
51	176
51	178
51	182
51	188
51	189
51	191
51	192
51	199
51	201
51	203
51	204
51	206
51	207
51	209
51	217
51	219
51	221
51	223
51	228
51	230
51	233
51	256
51	259
51	263
51	268
51	269
51	270
51	276
51	286
51	288
51	301
51	304
51	309
51	311
51	312
51	315
51	328
51	331
51	332
51	333
51	348
51	349
51	351
51	352
51	354
51	355
51	431
51	432
51	435
51	449
51	504
51	524
51	542
51	543
51	548
51	549
52	53
52	54
52	55
52	56
52	57
52	58
52	59
52	60
52	61
52	62
52	63
52	64
52	65
52	66
52	67
52	68
52	69
52	70
52	71
52	72
52	73
52	74
52	75
52	76
52	77
52	78
52	79
52	80
52	81
52	82
52	83
52	84
52	85
52	86
52	87
52	88
52	89
52	90
52	91
52	92
52	93
52	94
52	95
52	96
52	97
52	98
52	99
52	100
52	101
52	102
52	103
52	104
52	105
52	106
52	107
52	108
52	109
52	110
52	111
52	112
52	113
52	114
52	115
52	116
52	117
52	118
52	119
52	120
52	121
52	122
52	123
52	124
52	125
52	126
52	127
52	128
52	129
52	130
52	131
52	132
52	133
52	134
52	135
52	136
52	137
52	138
52	139
52	140
52	141
52	142
52	143
52	144
52	145
52	146
52	147
52	148
52	149
52	150
52	151
52	152
52	153
52	154
52	155
52	156
52	157
52	158
52	159
52	160
52	162
52	163
52	164
52	165
52	166
52	167
52	168
52	169
52	170
52	171
52	172
52	173
52	174
52	175
52	176
52	177
52	178
52	179
52	180
52	181
52	182
52	183
52	184
52	185
52	187
52	188
52	189
52	190
52	191
52	192
52	193
52	194
52	195
52	196
52	197
52	198
52	199
52	200
52	201
52	202
52	203
52	204
52	205
52	206
52	207
52	208
52	209
52	210
52	211
52	212
52	213
52	214
52	215
52	217
52	218
52	219
52	220
52	221
52	222
52	223
52	225
52	226
52	227
52	228
52	229
52	230
52	231
52	232
52	234
52	235
52	236
52	237
52	238
52	239
52	240
52	242
52	243
52	245
52	246
52	248
52	249
52	250
52	251
52	252
52	253
52	255
52	256
52	257
52	258
52	259
52	260
52	261
52	262
52	263
52	264
52	265
52	266
52	267
52	269
52	270
52	271
52	273
52	274
52	275
52	276
52	277
52	278
52	279
52	280
52	281
52	282
52	283
52	284
52	286
52	287
52	288
52	289
52	290
52	291
52	292
52	293
52	297
52	298
52	299
52	300
52	301
52	303
52	304
52	305
52	307
52	308
52	309
52	310
52	311
52	312
52	314
52	315
52	316
52	317
52	318
52	319
52	320
52	321
52	322
52	323
52	324
52	325
52	326
52	328
52	330
52	331
52	332
52	333
52	334
52	335
52	336
52	337
52	338
52	339
52	340
52	341
52	342
52	343
52	344
52	347
52	353
52	354
52	355
52	357
52	358
52	362
52	363
52	364
52	365
52	368
52	369
52	370
52	373
52	374
52	375
52	376
52	378
52	383
52	384
52	386
52	387
52	388
52	389
52	393
52	394
52	395
52	396
52	399
52	402
52	403
52	407
52	409
52	410
52	413
52	415
52	418
52	419
52	425
52	428
52	431
52	432
52	444
52	446
52	447
52	459
52	460
52	461
52	462
52	463
52	464
52	465
52	466
52	467
52	468
52	469
52	471
52	472
52	473
52	475
52	476
52	477
52	479
52	480
52	481
52	482
52	485
52	486
52	487
52	488
52	491
52	492
52	493
52	495
52	498
52	499
52	500
52	503
52	504
52	505
52	506
52	507
52	511
52	522
52	563
52	613
52	616
52	621
52	622
52	623
52	627
52	628
52	629
52	630
52	631
52	632
52	633
52	634
52	635
52	636
52	637
52	638
52	639
52	640
52	641
52	642
52	643
52	644
52	645
52	646
52	647
52	648
52	649
52	650
52	651
52	652
52	653
52	654
52	655
52	656
52	657
52	658
52	659
52	660
52	661
52	662
53	54
53	55
53	56
53	57
53	58
53	59
53	60
53	61
53	62
53	63
53	64
53	65
53	66
53	67
53	68
53	69
53	70
53	71
53	72
53	73
53	74
53	75
53	76
53	77
53	78
53	79
53	80
53	81
53	82
53	83
53	84
53	85
53	86
53	87
53	88
53	89
53	90
53	91
53	92
53	93
53	94
53	95
53	96
53	97
53	98
53	99
53	100
53	101
53	102
53	103
53	104
53	105
53	106
53	107
53	108
53	109
53	110
53	111
53	112
53	113
53	114
53	115
53	116
53	117
53	118
53	119
53	120
53	121
53	122
53	123
53	124
53	125
53	126
53	127
53	128
53	129
53	130
53	131
53	132
53	133
53	134
53	135
53	136
53	137
53	138
53	139
53	140
53	141
53	142
53	143
53	144
53	145
53	146
53	147
53	148
53	149
53	150
53	151
53	152
53	153
53	156
53	157
53	158
53	159
53	160
53	161
53	162
53	163
53	164
53	165
53	166
53	167
53	168
53	169
53	170
53	171
53	172
53	173
53	174
53	175
53	176
53	177
53	178
53	179
53	180
53	181
53	182
53	183
53	184
53	185
53	186
53	187
53	188
53	189
53	190
53	191
53	192
53	193
53	194
53	195
53	196
53	197
53	198
53	199
53	200
53	201
53	202
53	203
53	204
53	205
53	206
53	207
53	208
53	209
53	210
53	211
53	212
53	213
53	214
53	215
53	216
53	217
53	218
53	219
53	220
53	221
53	222
53	223
53	224
53	225
53	226
53	227
53	228
53	229
53	230
53	231
53	232
53	233
53	234
53	235
53	236
53	237
53	238
53	239
53	240
53	241
53	242
53	243
53	244
53	245
53	246
53	247
53	248
53	251
53	252
53	254
53	255
53	256
53	257
53	258
53	259
53	260
53	261
53	262
53	263
53	264
53	265
53	266
53	267
53	268
53	269
53	270
53	271
53	272
53	273
53	274
53	275
53	276
53	282
53	284
53	285
53	286
53	287
53	288
53	289
53	290
53	291
53	292
53	293
53	294
53	295
53	296
53	297
53	298
53	299
53	300
53	301
53	302
53	303
53	304
53	305
53	306
53	307
53	308
53	309
53	310
53	311
53	312
53	313
53	314
53	315
53	316
53	317
53	318
53	319
53	320
53	321
53	322
53	323
53	324
53	325
53	326
53	327
53	328
53	331
53	332
53	333
53	334
53	335
53	336
53	337
53	338
53	339
53	340
53	341
53	342
53	343
53	344
53	345
53	346
53	347
53	348
53	349
53	351
53	352
53	353
53	354
53	355
53	356
53	357
53	358
53	359
53	360
53	362
53	363
53	364
53	365
53	366
53	368
53	369
53	370
53	371
53	372
53	373
53	374
53	375
53	376
53	378
53	379
53	380
53	383
53	384
53	389
53	390
53	391
53	393
53	394
53	395
53	396
53	397
53	400
53	403
53	404
53	406
53	407
53	408
53	409
53	410
53	412
53	415
53	418
53	419
53	420
53	421
53	422
53	423
53	424
53	425
53	426
53	427
53	428
53	429
53	430
53	431
53	432
53	433
53	434
53	435
53	437
53	438
53	440
53	443
53	446
53	448
53	449
53	465
53	468
53	475
53	486
53	504
53	505
53	506
53	514
53	515
53	522
53	524
53	526
53	528
53	531
53	532
53	534
53	535
53	536
53	537
53	538
53	539
53	540
53	541
53	542
53	543
53	545
53	548
53	549
53	550
53	551
53	552
53	553
53	554
53	555
53	556
53	557
53	572
53	573
53	576
53	578
53	582
53	586
53	587
53	591
53	593
53	595
53	597
53	608
53	627
54	55
54	56
54	58
54	60
54	61
54	64
54	66
54	67
54	68
54	69
54	70
54	73
54	76
54	77
54	80
54	85
54	88
54	89
54	90
54	93
54	95
54	96
54	98
54	101
54	109
54	112
54	115
54	117
54	118
54	134
54	135
54	136
54	137
54	138
54	149
54	153
54	156
54	159
54	160
54	163
54	164
54	167
54	168
54	169
54	170
54	173
54	175
54	187
54	191
54	197
54	224
54	228
54	248
54	255
54	256
54	257
54	258
54	259
54	269
54	271
54	276
54	308
54	373
54	403
54	413
54	419
54	444
54	446
54	459
54	461
54	463
54	465
54	485
54	486
54	487
54	518
54	522
54	576
54	627
54	631
54	634
54	635
54	636
55	62
55	63
55	64
55	75
55	76
55	77
55	80
55	89
55	90
55	91
55	92
55	94
55	95
55	96
55	101
55	102
55	123
55	124
55	126
55	127
55	128
55	129
55	130
55	131
55	138
55	139
55	141
55	142
55	143
55	144
55	145
55	146
55	148
55	149
55	151
55	152
55	153
55	158
55	160
55	161
55	162
55	164
55	167
55	169
55	170
55	172
55	173
55	174
55	175
55	180
55	182
55	186
55	188
55	189
55	192
55	193
55	194
55	195
55	196
55	198
55	201
55	203
55	204
55	206
55	207
55	208
55	209
55	212
55	213
55	214
55	218
55	219
55	220
55	221
55	222
55	223
55	228
55	229
55	230
55	231
55	232
55	233
55	240
55	244
55	246
55	247
55	248
55	254
55	256
55	259
55	263
55	264
55	267
55	270
55	271
55	273
55	276
55	284
55	287
55	288
55	292
55	293
55	295
55	298
55	299
55	300
55	301
55	302
55	304
55	310
55	311
55	312
55	313
55	314
55	315
55	317
55	318
55	320
55	322
55	324
55	326
55	328
55	331
55	332
55	334
55	336
55	343
55	344
55	347
55	348
55	349
55	351
55	352
55	353
55	354
55	355
55	358
55	359
55	360
55	363
55	368
55	369
55	382
55	383
55	384
55	391
55	393
55	403
55	406
55	428
55	429
55	431
55	432
55	434
55	435
55	443
55	447
55	449
55	459
55	504
55	505
55	506
55	514
55	515
55	522
55	524
55	526
55	534
55	536
55	537
55	538
55	539
55	540
55	541
55	542
55	543
55	545
55	548
55	549
55	550
55	551
55	552
55	553
55	554
55	555
55	556
55	557
55	558
55	562
55	576
55	578
55	585
55	586
55	587
55	591
55	592
55	593
55	596
55	597
55	608
55	627
56	57
56	58
56	59
56	65
56	71
56	72
56	73
56	75
56	77
56	78
56	81
56	82
56	84
56	85
56	91
56	92
56	98
56	99
56	100
56	101
56	108
56	109
56	130
56	189
57	58
57	59
57	65
57	71
57	72
57	73
57	74
57	75
57	76
57	77
57	78
57	79
57	80
57	81
57	82
57	83
57	84
57	85
57	87
57	88
57	91
57	92
57	94
57	100
57	101
57	102
57	103
57	104
57	106
57	108
57	109
57	112
57	115
57	119
57	120
57	123
57	124
57	126
57	127
57	128
57	129
57	130
57	131
57	133
57	141
57	144
57	145
57	146
57	151
57	173
57	178
57	188
57	197
57	198
57	199
57	204
57	210
57	212
57	213
57	220
57	228
57	235
57	245
57	246
57	247
58	59
58	60
58	61
58	63
58	64
58	65
58	66
58	71
58	72
58	73
58	74
58	75
58	76
58	77
58	78
58	79
58	80
58	81
58	82
58	83
58	84
58	85
58	86
58	87
58	88
58	89
58	90
58	91
58	92
58	93
58	95
58	96
58	97
58	99
58	100
58	101
58	102
58	103
58	104
58	105
58	106
58	107
58	108
58	109
58	110
58	111
58	112
58	113
58	114
58	115
58	116
58	117
58	118
58	119
58	120
58	121
58	122
58	123
58	124
58	125
58	126
58	127
58	128
58	129
58	130
58	131
58	133
58	134
58	135
58	136
58	138
58	139
58	140
58	141
58	142
58	143
58	144
58	145
58	146
58	147
58	148
58	149
58	151
58	152
58	153
58	156
58	157
58	159
58	160
58	164
58	165
58	166
58	172
58	173
58	176
58	177
58	178
58	181
58	182
58	188
58	189
58	192
58	193
58	194
58	195
58	196
58	197
58	198
58	199
58	200
58	201
58	202
58	203
58	204
58	205
58	207
58	209
58	210
58	211
58	212
58	213
58	214
58	215
58	217
58	218
58	219
58	220
58	221
58	223
58	224
58	225
58	227
58	228
58	229
58	230
58	231
58	233
58	234
58	235
58	239
58	244
58	245
58	247
58	248
58	251
58	261
58	262
58	268
58	269
58	270
58	271
58	272
58	273
58	276
58	284
58	287
58	288
58	290
58	291
58	293
58	297
58	299
58	300
58	301
58	304
58	305
58	306
58	308
58	311
58	315
58	331
58	333
58	339
58	343
58	344
58	362
58	364
58	379
58	390
58	395
58	402
58	403
59	60
59	61
59	63
59	64
59	65
59	66
59	67
59	71
59	72
59	73
59	74
59	75
59	76
59	77
59	78
59	79
59	80
59	81
59	82
59	83
59	84
59	85
59	86
59	87
59	88
59	89
59	90
59	91
59	92
59	93
59	94
59	95
59	96
59	98
59	99
59	100
59	101
59	102
59	103
59	104
59	105
59	106
59	107
59	108
59	109
59	110
59	111
59	112
59	113
59	114
59	115
59	116
59	117
59	118
59	119
59	120
59	121
59	122
59	123
59	124
59	125
59	126
59	127
59	128
59	129
59	130
59	131
59	133
59	134
59	135
59	136
59	138
59	139
59	140
59	141
59	142
59	144
59	145
59	146
59	147
59	149
59	150
59	151
59	152
59	153
59	156
59	157
59	158
59	159
59	160
59	165
59	166
59	167
59	173
59	176
59	177
59	178
59	179
59	180
59	181
59	182
59	183
59	184
59	185
59	188
59	189
59	190
59	191
59	193
59	194
59	196
59	197
59	198
59	199
59	200
59	201
59	202
59	203
59	207
59	209
59	210
59	214
59	215
59	217
59	218
59	222
59	225
59	226
59	227
59	229
59	232
59	234
59	235
59	236
59	237
59	238
59	240
59	242
59	245
59	248
59	251
59	253
59	267
59	289
59	294
59	297
59	329
59	344
59	345
59	354
59	393
59	396
59	401
60	61
60	63
60	64
60	65
60	67
60	71
60	72
60	74
60	75
60	76
60	77
60	78
60	79
60	80
60	82
60	83
60	85
60	86
60	87
60	88
60	89
60	90
60	91
60	92
60	93
60	95
60	96
60	99
60	100
60	101
60	102
60	103
60	104
60	107
60	109
60	110
60	111
60	112
60	113
60	115
60	116
60	117
60	118
60	119
60	120
60	121
60	122
60	123
60	124
60	126
60	127
60	128
60	129
60	130
60	131
60	132
60	133
60	134
60	135
60	136
60	138
60	139
60	140
60	141
60	144
60	145
60	146
60	147
60	149
60	150
60	152
60	153
60	157
60	158
60	159
60	160
60	165
60	166
60	167
60	169
60	170
60	172
60	173
60	176
60	177
60	178
60	179
60	180
60	181
60	182
60	183
60	190
60	191
60	193
60	194
60	196
60	197
60	198
60	199
60	200
60	201
60	202
60	205
60	207
60	209
60	210
60	214
60	215
60	216
60	217
60	218
60	219
60	222
60	225
60	226
60	227
60	232
60	235
60	236
60	237
60	238
60	239
60	240
60	242
60	248
60	249
60	251
60	257
60	263
60	265
60	289
60	290
60	308
60	316
60	329
60	335
60	339
60	362
60	369
60	375
60	393
60	396
60	397
60	400
60	407
60	408
60	409
60	411
61	64
61	70
61	71
61	72
61	73
61	74
61	75
61	76
61	77
61	78
61	79
61	80
61	81
61	82
61	83
61	85
61	86
61	87
61	88
61	89
61	90
61	91
61	92
61	93
61	95
61	96
61	99
61	100
61	101
61	102
61	103
61	104
61	105
61	106
61	107
61	110
61	111
61	112
61	115
61	117
61	118
61	119
61	120
61	121
61	122
61	123
61	124
61	127
61	128
61	129
61	131
61	133
61	134
61	135
61	136
61	137
61	138
61	144
61	149
61	153
61	154
61	155
61	156
61	157
61	158
61	159
61	160
61	163
61	164
61	165
61	167
61	168
61	169
61	170
61	171
61	172
61	173
61	175
61	176
61	177
61	178
61	179
61	182
61	187
61	188
61	191
61	197
61	198
61	199
61	200
61	215
61	218
61	219
61	222
61	225
61	234
61	245
61	248
61	255
61	256
61	257
61	258
61	277
61	280
61	282
61	283
61	308
61	332
61	373
61	376
61	387
61	388
61	413
61	419
61	444
61	446
61	460
61	462
61	463
61	464
61	465
61	466
61	467
61	468
61	469
61	470
61	471
61	472
61	473
61	474
61	475
61	476
61	477
61	478
62	63
62	77
62	91
62	92
62	94
62	95
62	124
62	125
62	126
62	127
62	130
62	131
62	133
62	138
62	139
62	140
62	141
62	145
62	151
62	152
62	153
62	158
62	160
62	162
62	168
62	169
62	173
62	174
62	180
62	183
62	188
62	189
62	192
62	194
62	196
62	207
62	208
62	209
62	228
62	230
62	239
62	240
62	261
62	276
62	286
62	287
62	293
62	299
62	301
62	311
62	333
62	354
62	355
62	358
62	393
62	449
62	534
62	538
62	542
62	548
62	550
62	552
62	555
62	591
62	593
62	597
63	64
63	65
63	71
63	72
63	73
63	74
63	75
63	76
63	77
63	78
63	79
63	80
63	81
63	82
63	83
63	84
63	85
63	87
63	88
63	89
63	90
63	91
63	92
63	93
63	94
63	95
63	96
63	99
63	100
63	101
63	102
63	103
63	104
63	107
63	115
63	118
63	119
63	120
63	121
63	123
63	124
63	125
63	126
63	127
63	128
63	129
63	130
63	131
63	133
63	134
63	135
63	136
63	137
63	138
63	139
63	140
63	141
63	142
63	143
63	144
63	145
63	146
63	147
63	148
63	149
63	151
63	152
63	153
63	157
63	158
63	159
63	160
63	162
63	165
63	166
63	168
63	169
63	170
63	171
63	172
63	173
63	174
63	176
63	177
63	178
63	180
63	181
63	182
63	188
63	189
63	190
63	191
63	192
63	193
63	194
63	196
63	197
63	198
63	199
63	200
63	201
63	202
63	203
63	204
63	205
63	206
63	207
63	208
63	209
63	210
63	211
63	212
63	213
63	214
63	215
63	216
63	217
63	218
63	219
63	220
63	222
63	223
63	224
63	226
63	227
63	228
63	229
63	230
63	231
63	240
63	244
63	245
63	246
63	248
63	252
63	256
63	260
63	261
63	262
63	263
63	264
63	266
63	270
63	271
63	276
63	284
63	285
63	286
63	287
63	288
63	290
63	291
63	292
63	293
63	300
63	302
63	307
63	309
63	317
63	318
63	319
63	320
63	321
63	324
63	325
63	332
63	333
63	334
63	335
63	336
63	337
63	341
63	351
63	353
63	354
63	355
63	357
63	363
63	369
63	370
63	372
63	374
63	376
63	395
63	420
63	425
63	449
63	538
64	70
64	71
64	74
64	75
64	76
64	77
64	78
64	79
64	80
64	81
64	82
64	83
64	84
64	85
64	86
64	87
64	88
64	89
64	90
64	91
64	92
64	93
64	94
64	95
64	96
64	99
64	100
64	101
64	102
64	103
64	104
64	107
64	109
64	110
64	112
64	113
64	115
64	118
64	119
64	120
64	121
64	122
64	123
64	124
64	125
64	126
64	127
64	128
64	129
64	130
64	131
64	132
64	133
64	134
64	135
64	136
64	137
64	138
64	139
64	140
64	141
64	142
64	143
64	144
64	145
64	146
64	147
64	148
64	149
64	150
64	151
64	152
64	153
64	157
64	158
64	159
64	160
64	162
64	164
64	165
64	166
64	167
64	168
64	169
64	170
64	173
64	175
64	176
64	177
64	178
64	179
64	180
64	181
64	182
64	183
64	185
64	187
64	188
64	189
64	190
64	191
64	192
64	193
64	194
64	195
64	196
64	197
64	198
64	200
64	201
64	202
64	203
64	204
64	205
64	206
64	207
64	208
64	209
64	210
64	211
64	212
64	213
64	214
64	215
64	217
64	218
64	219
64	220
64	221
64	222
64	223
64	224
64	226
64	227
64	228
64	229
64	230
64	231
64	232
64	233
64	234
64	235
64	237
64	239
64	240
64	243
64	244
64	245
64	246
64	247
64	248
64	250
64	252
64	254
64	256
64	259
64	260
64	261
64	262
64	263
64	264
64	265
64	267
64	270
64	271
64	272
64	273
64	276
64	286
64	287
64	288
64	290
64	291
64	292
64	293
64	294
64	298
64	299
64	300
64	301
64	302
64	304
64	309
64	310
64	311
64	315
64	317
64	318
64	319
64	320
64	321
64	322
64	324
64	325
64	328
64	331
64	332
64	333
64	334
64	335
64	336
64	337
64	338
64	339
64	341
64	342
64	344
64	345
64	347
64	352
64	353
64	354
64	355
64	356
64	357
64	358
64	359
64	362
64	363
64	367
64	368
64	369
64	370
64	371
64	374
64	375
64	378
64	383
64	384
64	389
64	393
64	395
64	396
64	403
64	408
64	420
64	425
64	428
64	429
64	434
64	435
64	443
64	447
64	449
64	504
64	505
64	506
64	522
64	534
64	542
64	593
64	627
65	71
65	72
65	73
65	74
65	75
65	76
65	77
65	78
65	79
65	80
65	81
65	82
65	83
65	84
65	85
65	87
65	88
65	89
65	91
65	92
65	98
65	99
65	100
65	101
65	102
65	103
65	104
65	105
65	106
65	108
65	119
65	120
65	121
65	123
65	127
65	128
65	129
65	130
65	131
65	133
65	134
65	135
65	141
65	145
65	146
65	148
65	149
65	151
65	153
65	166
65	173
65	178
65	181
65	182
65	188
65	192
65	194
65	196
65	198
65	199
65	200
65	201
65	202
65	204
65	207
65	210
65	211
65	212
65	215
65	220
65	244
66	67
66	68
66	69
66	72
66	77
66	79
66	81
66	82
66	86
66	87
66	88
66	98
66	101
66	104
66	107
66	109
66	110
66	115
66	119
66	120
66	121
66	128
66	131
66	225
67	68
67	69
67	70
67	74
67	76
67	78
67	79
67	80
67	82
67	83
67	85
67	86
67	87
67	88
67	89
67	90
67	97
67	98
67	101
67	102
67	107
67	109
67	110
67	111
67	112
67	113
67	115
67	116
67	117
67	118
67	119
67	120
67	121
67	122
67	123
67	127
67	128
67	129
67	133
67	138
67	140
67	145
67	157
67	158
67	159
67	160
67	165
67	166
67	176
67	177
67	178
67	179
67	183
67	200
67	201
67	225
67	238
67	249
67	250
68	69
68	70
68	82
68	88
68	98
68	110
69	70
69	85
69	88
69	97
69	98
69	107
69	109
69	112
70	74
70	82
70	85
70	88
70	93
70	95
70	96
70	109
70	134
70	135
70	136
70	137
70	138
70	153
70	159
70	160
70	163
70	164
70	167
70	168
70	169
70	170
70	172
70	178
70	191
70	257
70	258
71	72
71	73
71	74
71	75
71	76
71	77
71	78
71	79
71	80
71	81
71	82
71	83
71	84
71	85
71	86
71	87
71	88
71	89
71	91
71	92
71	93
71	94
71	96
71	99
71	100
71	101
71	102
71	103
71	104
71	105
71	106
71	107
71	108
71	109
71	110
71	111
71	112
71	113
71	114
71	115
71	116
71	117
71	118
71	119
71	120
71	121
71	122
71	123
71	124
71	126
71	127
71	128
71	129
71	130
71	131
71	133
71	134
71	135
71	138
71	140
71	141
71	142
71	143
71	144
71	145
71	146
71	147
71	148
71	149
71	151
71	152
71	153
71	159
71	165
71	173
71	180
71	182
71	188
71	192
71	194
71	195
71	196
71	197
71	198
71	199
71	200
71	203
71	204
71	205
71	207
71	210
71	211
71	212
71	213
71	217
71	218
71	219
71	220
71	221
71	222
71	223
71	224
71	225
71	228
71	230
71	231
71	233
71	234
71	244
71	245
71	247
71	252
71	256
71	261
71	262
71	264
71	268
71	269
71	270
71	271
71	272
71	273
71	274
71	275
71	284
71	286
71	287
71	288
71	289
71	290
71	291
71	292
71	293
71	294
71	295
71	296
71	297
71	298
71	299
71	300
71	301
71	302
71	303
71	304
71	305
71	306
72	73
72	74
72	75
72	76
72	77
72	78
72	79
72	80
72	81
72	82
72	83
72	84
72	85
72	86
72	87
72	88
72	89
72	91
72	92
72	93
72	96
72	99
72	100
72	101
72	102
72	103
72	104
72	105
72	106
72	107
72	108
72	109
72	110
72	111
72	112
72	113
72	114
72	115
72	117
72	118
72	119
72	120
72	121
72	128
72	129
72	130
72	131
72	133
72	134
72	135
72	141
72	142
72	144
72	146
72	148
72	149
72	151
72	159
72	188
72	189
72	192
72	195
72	197
72	198
72	199
72	203
72	204
72	205
72	208
72	212
72	213
72	214
72	220
72	223
72	225
72	228
72	231
72	233
72	244
72	245
72	261
72	270
72	284
72	286
72	287
72	298
72	300
72	307
72	308
73	74
73	75
73	76
73	77
73	78
73	79
73	80
73	81
73	82
73	83
73	84
73	85
73	86
73	87
73	88
73	91
73	92
73	93
73	99
73	100
73	101
73	102
73	103
73	104
73	105
73	107
73	108
73	109
73	110
73	112
73	115
73	118
73	119
73	127
73	128
73	129
73	144
73	148
73	198
73	203
73	204
73	213
73	218
73	220
73	228
73	245
73	284
73	286
73	291
73	305
74	75
74	76
74	77
74	78
74	79
74	80
74	81
74	82
74	83
74	84
74	85
74	86
74	87
74	88
74	89
74	91
74	93
74	98
74	99
74	100
74	101
74	102
74	103
74	104
74	105
74	106
74	107
74	109
74	110
74	111
74	112
74	113
74	115
74	118
74	119
74	120
74	121
74	123
74	127
74	128
74	129
74	130
74	133
74	134
74	135
74	141
74	142
74	144
74	146
74	147
74	148
74	152
74	153
74	159
74	176
74	188
74	197
74	198
74	199
74	201
74	203
74	204
74	205
74	208
74	211
74	212
74	220
74	223
74	224
74	228
74	245
74	247
74	260
74	261
74	269
74	284
74	286
74	288
74	300
74	301
74	311
74	315
75	76
75	77
75	78
75	79
75	80
75	81
75	82
75	83
75	84
75	85
75	86
75	87
75	88
75	89
75	91
75	92
75	93
75	94
75	95
75	99
75	100
75	101
75	102
75	103
75	104
75	105
75	106
75	107
75	108
75	110
75	111
75	112
75	114
75	115
75	117
75	118
75	119
75	120
75	121
75	122
75	123
75	124
75	125
75	126
75	127
75	128
75	129
75	130
75	131
75	133
75	134
75	135
75	136
75	138
75	139
75	140
75	141
75	142
75	143
75	144
75	145
75	146
75	147
75	148
75	149
75	150
75	151
75	152
75	153
75	158
75	159
75	165
75	166
75	170
75	171
75	173
75	176
75	177
75	178
75	180
75	181
75	182
75	185
75	188
75	189
75	192
75	193
75	194
75	195
75	196
75	197
75	198
75	199
75	200
75	201
75	202
75	203
75	204
75	205
75	206
75	207
75	208
75	209
75	210
75	211
75	212
75	213
75	214
75	215
75	217
75	218
75	219
75	220
75	221
75	222
75	223
75	224
75	225
75	228
75	230
75	231
75	232
75	233
75	234
75	235
75	240
75	244
75	245
75	247
75	248
75	251
75	252
75	256
75	260
75	261
75	262
75	263
75	264
75	265
75	267
75	268
75	269
75	270
75	271
75	274
75	275
75	276
75	284
75	285
75	286
75	287
75	288
75	289
75	291
75	292
75	293
75	295
75	297
75	298
75	299
75	300
75	301
75	302
75	304
75	305
75	306
75	311
75	314
75	315
75	317
75	318
75	319
75	320
75	321
75	323
75	324
75	325
75	326
75	328
75	330
75	331
75	332
75	333
75	334
75	335
75	336
75	337
75	338
75	339
75	340
75	341
75	342
75	343
75	344
75	345
75	346
75	347
75	348
75	349
75	350
75	351
75	352
75	353
75	354
76	77
76	78
76	79
76	80
76	81
76	82
76	83
76	84
76	85
76	86
76	87
76	88
76	89
76	90
76	91
76	92
76	93
76	94
76	95
76	96
76	98
76	99
76	100
76	101
76	102
76	103
76	104
76	105
76	106
76	107
76	108
76	109
76	111
76	112
76	113
76	114
76	115
76	117
76	118
76	119
76	120
76	121
76	122
76	123
76	124
76	126
76	127
76	128
76	129
76	130
76	131
76	133
76	134
76	135
76	136
76	138
76	141
76	142
76	143
76	144
76	145
76	146
76	147
76	148
76	149
76	150
76	152
76	153
76	158
76	159
76	165
76	166
76	167
76	170
76	176
76	177
76	178
76	179
76	180
76	181
76	182
76	188
76	189
76	191
76	193
76	194
76	195
76	196
76	197
76	198
76	199
76	200
76	201
76	202
76	203
76	204
76	205
76	206
76	207
76	208
76	210
76	211
76	212
76	213
76	217
76	218
76	219
76	220
76	221
76	223
76	224
76	225
76	227
76	228
76	230
76	231
76	234
76	235
76	236
76	237
76	238
76	240
76	241
76	242
76	244
76	245
76	246
76	248
76	251
76	260
76	261
76	262
76	263
76	268
76	270
76	271
76	274
76	276
76	284
76	285
76	286
76	287
76	288
76	290
76	291
76	292
76	293
76	295
76	297
76	300
76	305
76	311
76	319
76	320
76	321
76	322
76	334
76	353
76	361
76	369
76	370
76	371
76	372
76	373
77	78
77	79
77	80
77	81
77	82
77	83
77	84
77	85
77	86
77	87
77	88
77	89
77	90
77	91
77	92
77	93
77	94
77	95
77	96
77	99
77	100
77	101
77	102
77	103
77	104
77	105
77	106
77	107
77	108
77	112
77	114
77	115
77	117
77	118
77	119
77	120
77	121
77	122
77	123
77	124
77	125
77	126
77	127
77	128
77	129
77	130
77	131
77	132
77	133
77	134
77	135
77	136
77	137
77	138
77	139
77	140
77	141
77	142
77	143
77	144
77	145
77	146
77	147
77	148
77	149
77	150
77	151
77	152
77	153
77	157
77	158
77	159
77	160
77	162
77	165
77	166
77	167
77	169
77	170
77	173
77	176
77	177
77	178
77	179
77	180
77	181
77	182
77	183
77	184
77	188
77	189
77	190
77	191
77	192
77	193
77	194
77	195
77	196
77	197
77	198
77	199
77	200
77	201
77	202
77	203
77	204
77	205
77	206
77	207
77	208
77	209
77	210
77	211
77	212
77	213
77	214
77	215
77	217
77	218
77	219
77	220
77	221
77	222
77	223
77	224
77	227
77	228
77	229
77	230
77	231
77	233
77	234
77	235
77	236
77	237
77	239
77	240
77	243
77	244
77	245
77	246
77	247
77	248
77	249
77	251
77	252
77	257
77	260
77	261
77	262
77	264
77	265
77	266
77	269
77	270
77	271
77	272
77	274
77	275
77	276
77	284
77	285
77	286
77	287
77	288
77	289
77	290
77	291
77	292
77	293
77	295
77	296
77	297
77	299
77	300
77	301
77	302
77	304
77	305
77	306
77	309
77	311
77	312
77	315
77	317
77	318
77	319
77	320
77	321
77	322
77	323
77	325
77	328
77	330
77	331
77	332
77	334
77	336
77	337
77	341
77	347
77	349
77	351
77	352
77	353
77	356
77	357
77	358
77	360
77	363
77	366
77	367
77	369
77	371
77	373
77	374
77	375
77	376
77	377
77	378
77	379
77	380
77	381
77	382
77	383
77	384
77	385
77	386
77	387
77	388
78	79
78	80
78	81
78	82
78	83
78	84
78	85
78	86
78	87
78	88
78	89
78	90
78	91
78	92
78	93
78	96
78	98
78	99
78	100
78	101
78	102
78	103
78	104
78	105
78	106
78	107
78	108
78	109
78	110
78	111
78	112
78	113
78	114
78	115
78	116
78	117
78	118
78	119
78	120
78	121
78	122
78	123
78	124
78	126
78	127
78	128
78	129
78	130
78	131
78	133
78	134
78	135
78	136
78	137
78	138
78	139
78	140
78	141
78	142
78	143
78	144
78	145
78	146
78	147
78	148
78	149
78	151
78	153
78	156
78	157
78	158
78	159
78	166
78	173
78	176
78	177
78	178
78	182
78	188
78	189
78	191
78	192
78	193
78	194
78	196
78	197
78	198
78	199
78	200
78	201
78	202
78	203
78	204
78	205
78	207
78	209
78	210
78	211
78	212
78	213
78	214
78	215
78	217
78	218
78	219
78	220
78	221
78	222
78	223
78	224
78	225
78	227
78	228
78	230
78	234
78	236
78	240
78	244
78	245
78	247
78	248
78	249
78	251
78	260
78	265
78	269
78	271
78	280
78	284
78	291
78	297
78	299
78	300
78	315
78	318
78	325
78	329
78	333
78	353
78	361
78	367
78	373
78	390
78	391
78	392
79	80
79	81
79	82
79	83
79	84
79	85
79	86
79	87
79	88
79	89
79	90
79	91
79	92
79	93
79	94
79	95
79	96
79	97
79	99
79	100
79	101
79	102
79	103
79	104
79	105
79	106
79	107
79	108
79	109
79	110
79	111
79	112
79	113
79	114
79	115
79	116
79	117
79	118
79	119
79	120
79	121
79	122
79	123
79	124
79	125
79	126
79	127
79	128
79	129
79	130
79	131
79	132
79	133
79	134
79	135
79	136
79	138
79	139
79	140
79	141
79	142
79	143
79	144
79	145
79	146
79	147
79	148
79	149
79	150
79	151
79	152
79	153
79	157
79	158
79	159
79	160
79	165
79	166
79	167
79	173
79	176
79	177
79	178
79	179
79	180
79	181
79	182
79	183
79	185
79	188
79	189
79	190
79	191
79	192
79	193
79	194
79	196
79	197
79	198
79	199
79	200
79	201
79	202
79	203
79	204
79	205
79	206
79	207
79	208
79	209
79	210
79	213
79	214
79	215
79	216
79	217
79	218
79	219
79	220
79	222
79	224
79	225
79	226
79	227
79	228
79	229
79	230
79	231
79	232
79	234
79	235
79	236
79	237
79	238
79	239
79	240
79	242
79	243
79	245
79	248
79	249
79	251
79	253
79	263
79	265
79	266
79	267
79	270
79	284
79	286
79	288
79	294
79	297
79	300
79	308
79	316
79	329
79	332
79	333
79	334
79	338
79	339
79	343
79	344
79	345
79	354
79	369
79	373
79	376
79	377
79	393
79	395
79	396
79	397
79	398
79	399
80	81
80	82
80	83
80	84
80	85
80	86
80	87
80	88
80	89
80	90
80	91
80	93
80	94
80	95
80	96
80	99
80	100
80	101
80	102
80	103
80	104
80	105
80	106
80	107
80	108
80	109
80	110
80	111
80	112
80	113
80	115
80	116
80	117
80	118
80	119
80	120
80	121
80	123
80	124
80	125
80	126
80	127
80	128
80	129
80	130
80	131
80	132
80	133
80	134
80	137
80	138
80	139
80	140
80	141
80	142
80	144
80	145
80	146
80	147
80	148
80	149
80	151
80	152
80	153
80	157
80	158
80	159
80	160
80	165
80	167
80	173
80	178
80	180
80	181
80	182
80	188
80	189
80	191
80	192
80	193
80	194
80	196
80	197
80	198
80	199
80	200
80	202
80	203
80	205
80	206
80	207
80	208
80	209
80	210
80	211
80	212
80	214
80	215
80	217
80	218
80	219
80	222
80	225
80	227
80	228
80	231
80	232
80	234
80	235
80	238
80	239
80	245
80	248
80	265
80	286
80	290
80	294
80	308
80	329
80	338
80	344
80	345
80	373
80	393
80	396
80	400
80	401
81	82
81	83
81	84
81	85
81	86
81	87
81	88
81	89
81	90
81	91
81	92
81	93
81	94
81	95
81	96
81	98
81	99
81	100
81	101
81	102
81	103
81	104
81	105
81	106
81	107
81	108
81	109
81	110
81	111
81	112
81	113
81	115
81	116
81	117
81	118
81	119
81	120
81	121
81	122
81	123
81	124
81	126
81	127
81	128
81	129
81	130
81	131
81	133
81	134
81	136
81	138
81	139
81	141
81	142
81	144
81	145
81	146
81	147
81	148
81	149
81	151
81	152
81	153
81	156
81	157
81	158
81	163
81	167
81	173
81	176
81	178
81	181
81	182
81	184
81	188
81	189
81	191
81	193
81	194
81	196
81	197
81	198
81	199
81	200
81	201
81	202
81	203
81	206
81	209
81	210
81	211
81	212
81	217
81	220
81	223
81	227
81	228
81	233
81	234
81	235
81	237
81	244
81	247
81	248
81	261
81	269
81	270
81	290
81	299
82	83
82	84
82	85
82	86
82	87
82	88
82	89
82	90
82	91
82	92
82	93
82	94
82	95
82	96
82	99
82	100
82	101
82	102
82	103
82	104
82	105
82	106
82	107
82	108
82	109
82	110
82	111
82	112
82	113
82	114
82	115
82	116
82	117
82	118
82	119
82	120
82	121
82	122
82	123
82	124
82	125
82	126
82	127
82	128
82	129
82	130
82	131
82	132
82	133
82	134
82	135
82	138
82	139
82	140
82	141
82	142
82	144
82	145
82	146
82	147
82	148
82	149
82	150
82	151
82	152
82	153
82	156
82	158
82	159
82	160
82	165
82	166
82	167
82	173
82	176
82	177
82	178
82	179
82	180
82	181
82	182
82	188
82	189
82	191
82	192
82	193
82	194
82	196
82	197
82	198
82	199
82	200
82	201
82	202
82	203
82	204
82	206
82	207
82	209
82	210
82	211
82	212
82	213
82	215
82	217
82	218
82	219
82	220
82	225
82	227
82	229
82	230
82	231
82	232
82	233
82	234
82	235
82	236
82	237
82	238
82	240
82	243
82	245
82	247
82	248
82	249
82	251
82	252
82	253
82	265
82	269
82	270
82	286
82	288
82	290
82	294
82	297
82	329
82	333
82	338
82	339
82	344
82	345
82	354
82	369
82	374
82	376
82	393
82	395
82	400
82	404
82	405
83	85
83	86
83	87
83	88
83	89
83	90
83	91
83	93
83	99
83	100
83	101
83	102
83	103
83	104
83	105
83	106
83	107
83	108
83	109
83	110
83	111
83	112
83	113
83	114
83	115
83	116
83	117
83	118
83	119
83	120
83	121
83	122
83	123
83	124
83	126
83	127
83	128
83	129
83	130
83	131
83	133
83	134
83	138
83	140
83	141
83	142
83	145
83	146
83	147
83	149
83	152
83	153
83	156
83	157
83	158
83	159
83	160
83	165
83	166
83	167
83	176
83	177
83	178
83	179
83	181
83	182
83	183
83	188
83	189
83	196
83	198
83	199
83	200
83	201
83	202
83	203
83	210
83	225
83	232
83	235
83	236
83	237
83	238
83	245
83	248
83	251
83	308
83	370
83	393
84	85
84	87
84	89
84	91
84	92
84	102
84	103
84	104
84	106
84	107
84	108
84	120
84	123
84	124
84	127
84	128
84	129
84	133
84	138
84	144
84	145
84	194
84	207
84	224
85	86
85	87
85	88
85	89
85	90
85	91
85	92
85	93
85	95
85	96
85	97
85	99
85	100
85	101
85	102
85	103
85	104
85	105
85	106
85	107
85	108
85	109
85	110
85	111
85	112
85	113
85	114
85	115
85	116
85	117
85	118
85	119
85	120
85	121
85	122
85	123
85	124
85	126
85	127
85	128
85	129
85	130
85	131
85	132
85	133
85	134
85	135
85	138
85	140
85	141
85	142
85	144
85	145
85	146
85	147
85	148
85	149
85	150
85	151
85	152
85	157
85	158
85	159
85	160
85	165
85	166
85	167
85	169
85	173
85	176
85	177
85	178
85	179
85	180
85	181
85	182
85	183
85	184
85	188
85	189
85	193
85	194
85	196
85	197
85	198
85	199
85	200
85	201
85	202
85	207
85	208
85	209
85	210
85	214
85	215
85	217
85	218
85	222
85	225
85	229
85	230
85	232
85	234
85	235
85	236
85	237
85	238
85	239
85	242
85	245
85	248
85	251
85	253
85	269
85	270
85	294
85	305
85	333
85	343
85	344
85	354
85	363
85	376
85	393
85	394
85	395
86	87
86	88
86	89
86	91
86	93
86	96
86	97
86	99
86	100
86	101
86	102
86	103
86	104
86	105
86	106
86	107
86	108
86	109
86	110
86	111
86	112
86	113
86	114
86	115
86	116
86	117
86	118
86	119
86	120
86	121
86	122
86	123
86	124
86	127
86	128
86	129
86	130
86	131
86	133
86	134
86	137
86	138
86	139
86	140
86	141
86	142
86	145
86	146
86	147
86	157
86	158
86	159
86	163
86	165
86	166
86	167
86	173
86	176
86	177
86	178
86	179
86	180
86	181
86	182
86	196
86	198
86	199
86	200
86	209
86	210
86	215
86	217
86	218
86	223
86	225
86	226
86	232
86	235
86	236
86	237
86	238
86	240
86	251
86	265
86	269
86	393
87	88
87	89
87	90
87	91
87	92
87	93
87	95
87	96
87	97
87	98
87	99
87	100
87	101
87	102
87	103
87	104
87	105
87	106
87	107
87	108
87	109
87	110
87	111
87	112
87	113
87	114
87	115
87	116
87	117
87	118
87	119
87	120
87	121
87	122
87	123
87	124
87	126
87	127
87	128
87	129
87	130
87	131
87	133
87	134
87	135
87	136
87	137
87	138
87	140
87	141
87	145
87	146
87	148
87	149
87	157
87	158
87	160
87	165
87	166
87	169
87	173
87	176
87	177
87	178
87	179
87	181
87	182
87	183
87	184
87	193
87	196
87	197
87	200
87	201
87	202
87	208
87	209
87	210
87	217
87	218
87	225
87	229
87	235
87	236
87	237
87	238
87	240
87	248
87	249
87	284
87	344
87	395
88	89
88	90
88	91
88	93
88	95
88	96
88	97
88	98
88	99
88	100
88	101
88	102
88	103
88	104
88	105
88	106
88	107
88	108
88	109
88	110
88	111
88	112
88	113
88	114
88	115
88	116
88	117
88	118
88	119
88	120
88	121
88	122
88	123
88	124
88	126
88	127
88	128
88	129
88	130
88	131
88	132
88	133
88	134
88	138
88	140
88	141
88	144
88	145
88	146
88	147
88	149
88	150
88	157
88	158
88	159
88	160
88	165
88	166
88	167
88	169
88	173
88	176
88	177
88	178
88	179
88	180
88	181
88	182
88	183
88	188
88	193
88	194
88	196
88	197
88	199
88	200
88	201
88	207
88	209
88	210
88	215
88	218
88	219
88	225
88	226
88	227
88	229
88	232
88	235
88	236
88	237
88	238
88	239
88	240
88	241
88	245
88	249
88	251
88	253
88	265
88	294
88	316
88	329
88	330
88	343
88	375
88	396
88	407
88	408
88	409
89	90
89	91
89	92
89	93
89	95
89	96
89	99
89	100
89	101
89	102
89	103
89	104
89	106
89	107
89	109
89	110
89	111
89	112
89	113
89	114
89	115
89	116
89	117
89	118
89	119
89	120
89	121
89	122
89	123
89	124
89	125
89	126
89	127
89	128
89	129
89	130
89	131
89	132
89	133
89	134
89	135
89	136
89	138
89	139
89	140
89	141
89	142
89	145
89	146
89	147
89	148
89	149
89	150
89	152
89	153
89	157
89	158
89	159
89	160
89	165
89	166
89	167
89	169
89	170
89	173
89	176
89	177
89	178
89	179
89	180
89	181
89	182
89	183
89	184
89	188
89	189
89	190
89	191
89	193
89	194
89	196
89	197
89	198
89	199
89	200
89	201
89	202
89	203
89	204
89	205
89	206
89	207
89	208
89	209
89	210
89	214
89	215
89	216
89	217
89	218
89	219
89	222
89	225
89	226
89	227
89	228
89	229
89	232
89	235
89	236
89	237
89	238
89	239
89	240
89	241
89	242
89	243
89	245
89	248
89	249
89	250
89	251
89	252
89	253
89	257
89	262
89	265
89	267
89	269
89	287
89	289
89	290
89	294
89	316
89	333
89	335
89	338
89	339
89	343
89	344
89	362
89	369
89	370
89	375
89	376
89	378
89	393
89	394
89	395
89	396
89	397
89	407
89	408
89	409
89	410
89	411
90	91
90	92
90	93
90	94
90	95
90	103
90	104
90	107
90	109
90	110
90	111
90	112
90	114
90	115
90	117
90	118
90	119
90	120
90	121
90	122
90	123
90	124
90	125
90	126
90	127
90	128
90	129
90	130
90	131
90	132
90	133
90	134
90	135
90	136
90	137
90	138
90	140
90	143
90	145
90	146
90	147
90	148
90	149
90	150
90	151
90	152
90	153
90	157
90	158
90	159
90	160
90	165
90	166
90	167
90	173
90	176
90	177
90	178
90	179
90	180
90	181
90	182
90	183
90	185
90	188
90	189
90	190
90	191
90	194
90	196
90	197
90	200
90	201
90	202
90	203
90	205
90	206
90	207
90	208
90	209
90	210
90	214
90	215
90	217
90	218
90	219
90	226
90	227
90	228
90	229
90	230
90	232
90	234
90	235
90	236
90	237
90	238
90	239
90	240
90	242
90	243
90	246
90	248
90	250
90	251
90	252
90	261
90	262
90	264
90	265
90	266
90	267
90	270
90	286
90	287
90	289
90	290
90	293
90	309
90	316
90	317
90	318
90	320
90	321
90	322
90	324
90	325
90	334
90	335
90	337
90	344
90	354
90	362
90	363
90	369
90	370
90	393
90	394
90	396
90	397
90	407
90	408
90	409
90	410
90	411
90	414
90	417
90	418
91	92
91	93
91	94
91	95
91	96
91	98
91	99
91	100
91	101
91	102
91	103
91	104
91	105
91	106
91	107
91	108
91	109
91	110
91	111
91	112
91	113
91	115
91	116
91	118
91	119
91	120
91	121
91	122
91	123
91	124
91	125
91	126
91	127
91	128
91	129
91	130
91	131
91	132
91	133
91	134
91	135
91	136
91	137
91	138
91	139
91	140
91	141
91	142
91	144
91	145
91	146
91	147
91	148
91	149
91	150
91	151
91	152
91	153
91	157
91	158
91	159
91	160
91	162
91	165
91	166
91	167
91	169
91	170
91	173
91	176
91	177
91	178
91	179
91	180
91	181
91	182
91	183
91	184
91	185
91	188
91	189
91	190
91	191
91	192
91	193
91	194
91	195
91	196
91	197
91	198
91	199
91	200
91	201
91	202
91	203
91	204
91	205
91	206
91	207
91	208
91	209
91	210
91	211
91	212
91	213
91	214
91	215
91	216
91	217
91	218
91	219
91	220
91	221
91	222
91	223
91	224
91	225
91	226
91	227
91	228
91	229
91	230
91	231
91	232
91	233
91	234
91	235
91	236
91	237
91	238
91	239
91	240
91	242
91	244
91	245
91	246
91	247
91	248
91	249
91	251
91	252
91	253
91	260
91	261
91	262
91	263
91	264
91	266
91	267
91	268
91	269
91	270
91	271
91	273
91	274
91	275
91	276
91	284
91	286
91	287
91	288
91	289
91	290
91	291
91	292
91	293
91	296
91	297
91	298
91	299
91	300
91	301
91	302
91	303
91	304
91	305
91	306
91	309
91	310
91	311
91	312
91	317
91	318
91	319
91	320
91	321
91	322
91	323
91	324
91	325
91	326
91	327
91	328
91	329
91	331
91	332
91	333
91	334
91	335
91	336
91	338
91	341
91	343
91	344
91	345
91	347
91	351
91	353
91	355
91	357
91	358
91	359
91	361
91	362
91	363
91	366
91	369
91	371
91	374
91	376
91	379
91	384
91	387
91	388
91	393
91	395
91	396
91	404
91	407
91	412
91	418
91	420
91	421
91	422
91	423
91	424
92	93
92	94
92	95
92	99
92	100
92	101
92	102
92	103
92	104
92	108
92	115
92	118
92	119
92	120
92	123
92	124
92	125
92	126
92	127
92	128
92	129
92	130
92	131
92	133
92	135
92	136
92	137
92	138
92	139
92	140
92	141
92	142
92	143
92	144
92	145
92	146
92	147
92	148
92	149
92	150
92	151
92	152
92	153
92	157
92	158
92	159
92	160
92	166
92	167
92	168
92	169
92	170
92	172
92	173
92	176
92	177
92	178
92	179
92	180
92	181
92	182
92	184
92	186
92	188
92	189
92	190
92	191
92	192
92	193
92	194
92	195
92	196
92	197
92	198
92	200
92	201
92	202
92	203
92	204
92	205
92	206
92	207
92	208
92	209
92	210
92	211
92	212
92	213
92	214
92	215
92	216
92	217
92	218
92	219
92	220
92	221
92	222
92	223
92	224
92	226
92	227
92	228
92	229
92	230
92	231
92	232
92	233
92	234
92	235
92	238
92	239
92	240
92	244
92	245
92	246
92	247
92	248
92	252
92	257
92	260
92	261
92	262
92	263
92	264
92	265
92	268
92	269
92	270
92	271
92	272
92	273
92	274
92	275
92	276
92	284
92	285
92	286
92	287
92	288
92	289
92	290
92	291
92	292
92	293
92	296
92	297
92	299
92	300
92	301
92	302
92	303
92	304
92	305
92	309
92	311
92	312
92	313
92	315
92	317
92	318
92	319
92	320
92	321
92	322
92	323
92	324
92	325
92	326
92	328
92	330
92	331
92	332
92	333
92	334
92	335
92	336
92	337
92	341
92	342
92	344
92	345
92	347
92	348
92	349
92	351
92	352
92	353
92	355
92	356
92	357
92	358
92	359
92	360
92	362
92	363
92	365
92	369
92	371
92	372
92	374
92	376
92	379
92	380
92	382
92	384
92	390
92	393
92	395
92	396
92	399
92	404
92	407
92	418
92	419
92	421
92	422
92	423
92	425
92	427
92	436
92	437
92	438
92	439
92	440
93	94
93	95
93	96
93	99
93	100
93	101
93	102
93	103
93	104
93	107
93	111
93	112
93	113
93	115
93	116
93	117
93	118
93	119
93	120
93	121
93	122
93	123
93	124
93	127
93	128
93	129
93	130
93	131
93	132
93	133
93	134
93	135
93	136
93	137
93	138
93	141
93	145
93	146
93	147
93	148
93	149
93	152
93	153
93	158
93	159
93	160
93	165
93	166
93	167
93	168
93	169
93	170
93	171
93	172
93	173
93	176
93	177
93	178
93	179
93	180
93	182
93	183
93	184
93	188
93	189
93	191
93	193
93	196
93	197
93	198
93	199
93	200
93	201
93	204
93	206
93	215
93	222
93	223
93	225
93	226
93	228
93	231
93	237
93	238
93	245
93	251
93	257
93	271
93	300
93	311
93	361
93	367
93	396
93	399
94	95
94	101
94	115
94	118
94	120
94	123
94	124
94	125
94	126
94	127
94	129
94	130
94	131
94	132
94	133
94	136
94	137
94	138
94	139
94	141
94	142
94	143
94	144
94	145
94	146
94	147
94	149
94	151
94	152
94	153
94	157
94	158
94	159
94	160
94	162
94	166
94	167
94	168
94	169
94	173
94	174
94	178
94	180
94	181
94	182
94	183
94	187
94	188
94	189
94	190
94	191
94	192
94	193
94	194
94	196
94	197
94	198
94	200
94	202
94	203
94	204
94	205
94	206
94	207
94	208
94	209
94	212
94	213
94	219
94	222
94	223
94	226
94	227
94	228
94	229
94	230
94	231
94	234
94	238
94	239
94	240
94	244
94	246
94	252
94	256
94	260
94	261
94	262
94	263
94	264
94	265
94	271
94	276
94	286
94	287
94	290
94	291
94	293
94	309
94	316
94	317
94	318
94	320
94	321
94	322
94	323
94	324
94	325
94	334
94	335
94	336
94	337
94	339
94	341
94	353
94	354
94	355
94	357
94	363
94	369
94	370
94	374
94	389
94	393
94	396
94	397
94	408
94	418
95	96
95	101
95	102
95	104
95	105
95	115
95	118
95	119
95	120
95	123
95	124
95	125
95	126
95	127
95	128
95	129
95	130
95	131
95	132
95	133
95	134
95	135
95	136
95	137
95	138
95	139
95	140
95	141
95	142
95	143
95	144
95	145
95	146
95	147
95	148
95	149
95	150
95	151
95	152
95	153
95	156
95	157
95	158
95	159
95	160
95	162
95	163
95	164
95	166
95	167
95	168
95	169
95	170
95	171
95	172
95	173
95	174
95	175
95	178
95	180
95	181
95	182
95	183
95	185
95	186
95	187
95	188
95	189
95	190
95	191
95	192
95	193
95	194
95	195
95	196
95	197
95	198
95	200
95	201
95	203
95	204
95	205
95	206
95	207
95	208
95	209
95	210
95	211
95	212
95	213
95	214
95	215
95	217
95	218
95	219
95	220
95	221
95	222
95	223
95	224
95	226
95	227
95	228
95	229
95	230
95	231
95	232
95	233
95	234
95	235
95	239
95	240
95	242
95	243
95	244
95	246
95	247
95	248
95	252
95	254
95	255
95	256
95	257
95	258
95	259
95	260
95	261
95	262
95	263
95	264
95	265
95	266
95	267
95	268
95	269
95	270
95	271
95	272
95	273
95	274
95	276
95	286
95	287
95	288
95	290
95	291
95	292
95	293
95	297
95	298
95	299
95	300
95	301
95	302
95	303
95	304
95	306
95	309
95	311
95	312
95	313
95	314
95	315
95	317
95	318
95	319
95	320
95	321
95	322
95	323
95	324
95	325
95	326
95	327
95	328
95	331
95	332
95	333
95	334
95	335
95	336
95	337
95	338
95	339
95	340
95	341
95	342
95	343
95	347
95	348
95	351
95	352
95	353
95	354
95	355
95	357
95	358
95	359
95	360
95	361
95	362
95	363
95	364
95	365
95	367
95	368
95	369
95	370
95	374
95	378
95	383
95	384
95	387
95	389
95	390
95	391
95	392
95	393
95	394
95	396
95	397
95	399
95	400
95	402
95	403
95	408
95	410
95	412
95	415
95	418
95	419
95	420
95	425
95	427
95	428
95	429
95	431
95	432
95	434
95	435
95	439
95	446
95	447
95	448
95	449
95	459
95	463
95	464
95	465
95	466
95	477
95	486
95	487
95	488
95	493
95	498
95	499
95	500
95	501
95	503
95	504
95	505
95	506
95	510
95	513
95	515
95	522
95	524
95	526
95	529
95	536
95	538
95	539
95	540
95	542
95	548
95	550
95	551
95	553
95	563
95	576
95	615
95	616
95	617
95	618
95	619
95	620
95	621
95	622
95	623
95	624
95	625
95	626
95	627
96	99
96	101
96	102
96	103
96	104
96	105
96	109
96	112
96	119
96	120
96	123
96	124
96	127
96	128
96	129
96	134
96	135
96	136
96	137
96	138
96	141
96	143
96	144
96	145
96	148
96	151
96	153
96	154
96	155
96	156
96	159
96	160
96	163
96	164
96	168
96	169
96	170
96	171
96	172
96	175
96	180
96	187
96	189
96	191
96	193
96	196
96	197
96	205
96	209
96	213
96	231
96	245
96	255
96	256
96	258
96	259
96	264
96	276
96	277
96	278
96	279
96	280
96	281
96	282
96	283
96	308
96	325
96	353
96	355
96	373
96	385
96	386
96	387
96	388
96	392
96	402
96	403
96	405
96	413
96	415
96	419
96	444
96	446
96	452
96	453
96	454
96	455
96	456
96	459
96	460
96	461
96	462
96	463
96	464
96	465
96	466
96	467
96	468
96	469
96	470
96	471
96	472
96	473
96	474
96	475
96	476
96	477
96	478
96	479
96	480
96	481
96	482
96	483
96	484
96	485
96	486
96	487
96	488
96	490
96	491
96	492
96	493
96	494
96	495
96	496
96	497
96	498
96	499
96	500
96	501
96	502
96	503
96	507
96	508
96	509
96	510
96	511
96	512
96	513
96	516
96	517
96	518
96	519
96	523
96	530
96	563
96	601
96	613
96	614
96	615
96	616
96	617
96	618
96	619
96	620
96	621
96	622
96	623
96	624
96	625
96	626
96	627
96	628
96	629
96	630
96	631
96	632
96	633
96	634
96	635
96	636
96	637
96	638
96	639
96	640
96	641
96	642
96	643
96	644
96	645
96	646
96	647
96	648
96	649
96	650
96	651
96	652
96	653
96	654
96	655
96	656
96	657
96	658
96	659
96	660
96	661
96	662
96	663
96	664
96	665
96	666
96	667
96	668
96	669
96	670
96	671
96	672
96	673
96	674
96	675
96	676
96	677
96	678
96	679
96	680
96	681
96	682
96	683
96	684
96	685
96	686
96	687
96	688
96	690
96	691
96	692
96	693
96	694
96	695
96	696
96	697
96	698
96	699
96	700
96	701
96	702
96	703
96	704
96	705
96	706
96	707
96	708
96	709
96	711
96	712
96	713
96	714
96	715
96	716
96	717
96	718
96	719
96	720
96	721
96	722
96	723
96	724
96	725
96	726
96	727
96	728
96	729
96	730
96	731
96	732
96	733
96	734
96	735
96	736
96	737
96	738
96	739
96	740
96	741
96	742
96	743
96	744
96	745
96	746
96	747
96	748
96	749
96	750
96	751
96	752
96	753
96	754
96	757
96	760
96	761
96	762
96	763
96	764
96	765
96	766
96	767
96	768
96	769
96	771
96	772
96	773
96	774
96	775
96	776
96	779
96	780
96	785
96	786
96	787
96	788
96	791
96	792
96	793
96	794
96	795
96	796
96	797
96	800
96	801
96	802
96	803
96	805
96	806
96	807
96	808
96	809
96	810
96	811
96	813
96	814
96	817
96	818
96	819
96	820
96	821
96	822
96	823
96	824
96	826
96	829
96	830
96	831
96	832
96	834
96	835
96	836
96	837
96	838
96	839
96	840
96	841
96	852
96	860
96	861
96	862
96	864
96	867
96	868
96	871
96	872
96	873
96	877
96	878
96	879
96	884
96	887
96	889
96	890
96	891
96	893
96	896
96	901
96	914
96	916
96	925
96	968
97	98
97	102
97	109
97	110
97	111
97	112
97	113
97	115
97	118
97	121
97	165
98	109
98	110
98	115
98	130
98	145
99	100
99	101
99	102
99	103
99	104
99	105
99	106
99	107
99	109
99	110
99	112
99	115
99	118
99	119
99	120
99	121
99	124
99	127
99	128
99	129
99	130
99	131
99	133
99	134
99	135
99	141
99	142
99	144
99	145
99	148
99	152
99	153
99	159
99	182
99	188
99	194
99	196
99	198
99	199
99	203
99	204
99	211
99	212
99	220
99	228
99	230
99	245
99	262
99	270
99	284
99	287
99	291
99	316
100	101
100	102
100	103
100	104
100	105
100	106
100	107
100	109
100	110
100	112
100	115
100	118
100	119
100	120
100	121
100	127
100	128
100	129
100	130
100	133
100	134
100	135
100	138
100	139
100	141
100	142
100	143
100	144
100	145
100	148
100	152
100	153
100	158
100	159
100	176
100	188
100	195
100	198
100	199
100	202
100	203
100	204
100	205
100	206
100	210
100	211
100	212
100	218
100	220
100	225
100	228
100	230
100	231
100	233
100	245
100	247
100	261
100	262
100	264
100	270
100	284
100	286
100	287
100	291
100	300
100	317
100	318
101	102
101	103
101	104
101	105
101	107
101	109
101	110
101	111
101	115
101	118
101	119
101	120
101	121
101	123
101	124
101	126
101	127
101	128
101	129
101	130
101	131
101	133
101	134
101	135
101	136
101	138
101	141
101	142
101	143
101	144
101	145
101	146
101	147
101	148
101	149
101	151
101	152
101	153
101	158
101	159
101	166
101	170
101	171
101	173
101	176
101	177
101	178
101	181
101	182
101	188
101	191
101	192
101	193
101	195
101	196
101	197
101	198
101	199
101	202
101	203
101	204
101	205
101	206
101	207
101	208
101	211
101	212
101	213
101	214
101	217
101	218
101	219
101	220
101	221
101	223
101	224
101	225
101	228
101	230
101	231
101	233
101	234
101	240
101	244
101	245
101	247
101	248
101	257
101	260
101	261
101	262
101	264
101	269
101	270
101	271
101	276
101	284
101	285
101	286
101	287
101	288
101	291
101	292
101	293
101	295
101	297
101	299
101	300
101	301
101	304
101	305
101	311
101	312
101	314
101	317
101	318
101	319
101	320
101	322
101	323
101	324
101	325
101	331
101	336
101	337
101	341
101	351
101	358
101	361
101	362
101	363
101	364
101	365
101	366
101	367
101	368
102	103
102	104
102	105
102	106
102	107
102	108
102	109
102	110
102	111
102	112
102	115
102	117
102	118
102	119
102	120
102	121
102	122
102	123
102	124
102	125
102	126
102	127
102	128
102	129
102	130
102	131
102	133
102	134
102	135
102	136
102	138
102	139
102	140
102	141
102	142
102	145
102	146
102	147
102	148
102	149
102	151
102	152
102	157
102	158
102	159
102	160
102	165
102	166
102	167
102	176
102	177
102	178
102	182
102	188
102	189
102	193
102	194
102	196
102	197
102	198
102	199
102	200
102	201
102	202
102	203
102	204
102	205
102	206
102	207
102	208
102	209
102	210
102	214
102	215
102	217
102	218
102	219
102	225
102	227
102	228
102	229
102	230
102	232
102	234
102	235
102	236
102	238
102	239
102	240
102	245
102	246
102	247
102	248
102	249
102	251
102	263
102	269
102	270
102	271
102	286
102	287
102	288
102	290
102	301
102	302
102	304
102	331
102	333
102	355
102	369
102	389
103	104
103	105
103	106
103	107
103	108
103	110
103	111
103	112
103	115
103	117
103	118
103	119
103	120
103	121
103	123
103	124
103	126
103	127
103	128
103	129
103	130
103	131
103	133
103	134
103	135
103	136
103	139
103	140
103	141
103	142
103	143
103	144
103	145
103	147
103	148
103	149
103	150
103	151
103	152
103	157
103	159
103	165
103	166
103	176
103	177
103	178
103	180
103	182
103	188
103	189
103	191
103	192
103	193
103	196
103	197
103	198
103	199
103	200
103	201
103	202
103	203
103	204
103	206
103	207
103	209
103	212
103	213
103	214
103	217
103	218
103	219
103	221
103	225
103	226
103	227
103	231
103	232
103	234
103	235
103	239
103	240
103	243
103	245
103	248
103	266
103	270
103	284
103	286
103	287
103	290
103	293
103	325
103	333
103	343
103	345
103	369
103	393
104	105
104	106
104	107
104	108
104	109
104	110
104	112
104	115
104	117
104	118
104	119
104	120
104	121
104	122
104	123
104	124
104	125
104	126
104	127
104	128
104	129
104	130
104	131
104	132
104	133
104	134
104	135
104	136
104	138
104	139
104	140
104	141
104	142
104	144
104	145
104	146
104	147
104	148
104	149
104	150
104	151
104	152
104	153
104	157
104	158
104	159
104	160
104	165
104	166
104	173
104	176
104	177
104	178
104	180
104	182
104	185
104	188
104	189
104	191
104	193
104	194
104	196
104	197
104	198
104	199
104	200
104	201
104	202
104	203
104	204
104	206
104	207
104	208
104	209
104	210
104	211
104	213
104	214
104	215
104	216
104	217
104	218
104	219
104	221
104	222
104	227
104	229
104	230
104	231
104	232
104	234
104	235
104	239
104	240
104	242
104	243
104	245
104	247
104	248
104	251
104	253
104	260
104	262
104	263
104	265
104	266
104	270
104	271
104	288
104	290
104	291
104	293
104	295
104	298
104	299
104	301
104	320
104	321
104	330
104	333
104	334
104	338
104	343
104	369
104	370
104	373
104	389
104	393
104	394
104	395
105	106
105	107
105	108
105	110
105	111
105	118
105	119
105	120
105	126
105	127
105	128
105	129
105	130
105	131
105	134
105	141
105	142
105	145
105	148
105	159
105	178
105	182
105	189
105	196
105	198
105	199
105	202
105	204
105	207
105	264
105	287
105	288
106	107
106	108
106	115
106	118
106	120
106	126
106	127
106	128
106	129
106	134
106	145
106	182
106	198
106	199
106	202
106	227
107	109
107	110
107	111
107	112
107	113
107	114
107	115
107	116
107	117
107	118
107	119
107	120
107	121
107	122
107	123
107	124
107	127
107	128
107	129
107	130
107	131
107	133
107	134
107	135
107	136
107	138
107	141
107	142
107	143
107	144
107	145
107	146
107	147
107	148
107	149
107	150
107	152
107	158
107	159
107	160
107	165
107	166
107	167
107	173
107	176
107	177
107	178
107	179
107	180
107	182
107	183
107	188
107	189
107	191
107	192
107	193
107	196
107	197
107	198
107	199
107	200
107	201
107	202
107	203
107	206
107	209
107	210
107	218
107	225
107	229
107	231
107	234
107	235
107	236
107	237
107	238
107	239
107	240
107	245
107	248
107	251
107	265
107	286
107	339
107	344
107	393
107	396
107	401
108	118
108	120
108	123
108	124
108	127
108	128
108	129
108	130
108	131
108	149
108	158
108	194
108	196
108	199
108	207
108	218
108	253
109	110
109	111
109	112
109	113
109	114
109	115
109	116
109	117
109	118
109	119
109	120
109	121
109	122
109	123
109	124
109	128
109	129
109	131
109	132
109	133
109	146
109	158
109	165
109	167
109	176
109	181
109	182
109	200
109	210
109	225
109	236
109	238
109	253
109	289
110	111
110	112
110	113
110	114
110	115
110	116
110	117
110	118
110	119
110	120
110	121
110	122
110	123
110	124
110	127
110	128
110	129
110	131
110	132
110	133
110	145
110	146
110	157
110	158
110	159
110	160
110	165
110	166
110	167
110	176
110	177
110	178
110	179
110	182
110	194
110	200
110	201
110	210
110	225
110	232
110	236
110	237
110	238
110	245
110	249
110	251
110	290
110	333
110	376
111	112
111	113
111	114
111	115
111	116
111	117
111	118
111	119
111	120
111	121
111	122
111	123
111	124
111	128
111	129
111	132
111	133
111	134
111	136
111	138
111	146
111	157
111	158
111	159
111	160
111	165
111	166
111	167
111	169
111	172
111	176
111	177
111	178
111	179
111	182
111	183
111	189
111	191
111	196
111	198
111	199
111	200
111	201
111	209
111	210
111	218
111	225
111	226
111	236
111	237
111	238
111	239
111	249
111	251
111	290
111	316
111	393
112	113
112	114
112	115
112	116
112	117
112	118
112	119
112	120
112	121
112	122
112	123
112	124
112	127
112	128
112	129
112	131
112	133
112	134
112	140
112	141
112	145
112	146
112	147
112	149
112	158
112	160
112	165
112	166
112	176
112	177
112	179
112	182
112	194
112	196
112	199
112	200
112	210
112	214
112	225
112	232
112	236
112	242
112	248
112	251
112	253
113	114
113	115
113	116
113	117
113	118
113	119
113	120
113	121
113	122
113	123
113	129
113	130
113	158
113	160
113	165
113	173
113	176
113	177
113	178
113	200
113	225
113	236
113	251
114	115
114	116
114	117
114	118
114	119
114	120
114	121
114	122
114	127
114	129
114	131
114	134
114	159
114	165
114	166
114	176
114	182
114	225
114	237
114	251
115	116
115	117
115	118
115	119
115	120
115	121
115	122
115	123
115	124
115	126
115	127
115	128
115	129
115	130
115	131
115	132
115	133
115	134
115	136
115	138
115	140
115	141
115	142
115	145
115	146
115	148
115	150
115	151
115	156
115	157
115	158
115	159
115	165
115	166
115	167
115	173
115	176
115	177
115	178
115	179
115	180
115	182
115	188
115	189
115	193
115	194
115	196
115	197
115	198
115	199
115	200
115	201
115	202
115	210
115	218
115	223
115	225
115	226
115	235
115	236
115	237
115	238
115	249
115	251
115	252
115	253
115	290
115	344
115	369
115	375
115	376
115	393
116	117
116	118
116	119
116	120
116	121
116	122
116	123
116	124
116	128
116	129
116	134
116	151
116	157
116	159
116	165
116	176
116	178
116	182
116	200
116	225
116	236
116	249
116	251
117	118
117	119
117	120
117	121
117	122
117	123
117	124
117	127
117	128
117	129
117	131
117	132
117	133
117	134
117	136
117	138
117	141
117	142
117	143
117	145
117	146
117	149
117	157
117	158
117	159
117	160
117	165
117	166
117	167
117	176
117	177
117	178
117	179
117	182
117	183
117	197
117	198
117	200
117	201
117	202
117	207
117	210
117	225
117	226
117	235
117	236
117	237
117	238
117	239
117	240
117	248
117	249
117	251
117	265
117	289
117	290
117	354
117	369
117	393
117	396
117	410
118	119
118	120
118	121
118	122
118	123
118	124
118	126
118	127
118	128
118	129
118	130
118	131
118	132
118	133
118	134
118	135
118	136
118	137
118	138
118	139
118	140
118	141
118	143
118	145
118	146
118	147
118	148
118	149
118	150
118	151
118	152
118	156
118	157
118	158
118	159
118	160
118	165
118	166
118	167
118	168
118	169
118	170
118	172
118	173
118	176
118	177
118	178
118	179
118	180
118	181
118	182
118	183
118	185
118	189
118	190
118	191
118	193
118	194
118	196
118	197
118	198
118	199
118	200
118	201
118	202
118	204
118	207
118	208
118	209
118	210
118	213
118	214
118	215
118	217
118	218
118	219
118	222
118	225
118	226
118	227
118	228
118	229
118	232
118	234
118	235
118	236
118	237
118	238
118	239
118	240
118	241
118	242
118	243
118	244
118	245
118	246
118	247
118	248
118	249
118	251
118	253
118	257
118	265
118	289
118	290
118	293
118	316
118	329
118	333
118	335
118	339
118	343
118	344
118	354
118	362
118	369
118	370
118	375
118	376
118	393
118	394
118	395
118	396
118	397
118	407
118	408
118	411
119	120
119	121
119	122
119	123
119	124
119	126
119	127
119	128
119	129
119	130
119	131
119	132
119	133
119	134
119	135
119	138
119	139
119	140
119	141
119	143
119	144
119	145
119	146
119	147
119	149
119	150
119	156
119	157
119	158
119	159
119	160
119	165
119	166
119	167
119	176
119	177
119	178
119	179
119	180
119	181
119	182
119	183
119	188
119	190
119	193
119	194
119	195
119	196
119	197
119	198
119	199
119	200
119	201
119	202
119	207
119	209
119	210
119	213
119	217
119	218
119	219
119	222
119	225
119	226
119	228
119	235
119	236
119	237
119	238
119	239
119	242
119	243
119	245
119	249
119	251
119	260
119	265
119	269
119	289
119	290
119	329
119	339
119	373
119	393
119	412
119	413
120	121
120	122
120	123
120	124
120	125
120	126
120	127
120	128
120	129
120	130
120	131
120	132
120	133
120	134
120	135
120	136
120	137
120	138
120	139
120	140
120	141
120	142
120	145
120	146
120	147
120	148
120	149
120	150
120	151
120	152
120	153
120	157
120	158
120	159
120	160
120	165
120	166
120	167
120	168
120	169
120	173
120	176
120	177
120	178
120	179
120	180
120	181
120	182
120	183
120	184
120	185
120	188
120	189
120	190
120	191
120	193
120	194
120	195
120	196
120	197
120	198
120	199
120	200
120	201
120	202
120	203
120	204
120	205
120	206
120	207
120	209
120	210
120	211
120	213
120	214
120	215
120	216
120	217
120	218
120	219
120	220
120	221
120	222
120	225
120	226
120	227
120	228
120	229
120	230
120	231
120	232
120	234
120	235
120	236
120	237
120	238
120	239
120	240
120	241
120	242
120	243
120	244
120	245
120	247
120	248
120	249
120	251
120	252
120	265
120	267
120	270
120	274
120	289
120	290
120	298
120	300
120	304
120	316
120	323
120	329
120	333
120	338
120	339
120	343
120	345
120	368
120	369
120	375
120	376
120	378
120	393
120	395
120	396
120	404
120	407
120	408
120	409
120	411
120	412
120	414
121	122
121	123
121	124
121	127
121	128
121	129
121	130
121	131
121	132
121	133
121	134
121	135
121	136
121	138
121	139
121	140
121	141
121	144
121	145
121	146
121	147
121	150
121	157
121	158
121	159
121	160
121	165
121	166
121	167
121	168
121	173
121	176
121	177
121	178
121	179
121	180
121	181
121	182
121	183
121	188
121	190
121	191
121	197
121	198
121	199
121	200
121	201
121	202
121	210
121	213
121	215
121	217
121	218
121	225
121	226
121	227
121	234
121	235
121	236
121	237
121	238
121	239
121	240
121	245
121	249
121	251
121	260
121	289
121	290
121	316
121	333
121	362
121	396
121	407
121	408
121	409
121	415
122	123
122	127
122	128
122	129
122	132
122	133
122	134
122	141
122	147
122	149
122	157
122	158
122	159
122	160
122	165
122	166
122	167
122	176
122	177
122	178
122	179
122	180
122	198
122	201
122	210
122	225
122	226
122	227
122	236
122	237
122	238
122	249
122	251
122	265
122	266
122	395
123	124
123	125
123	126
123	127
123	128
123	129
123	130
123	131
123	132
123	133
123	134
123	135
123	136
123	137
123	138
123	139
123	140
123	141
123	142
123	145
123	146
123	147
123	148
123	149
123	150
123	151
123	152
123	153
123	157
123	158
123	159
123	160
123	165
123	166
123	167
123	168
123	169
123	170
123	171
123	173
123	176
123	177
123	178
123	179
123	180
123	181
123	182
123	183
123	184
123	185
123	188
123	189
123	190
123	191
123	192
123	193
123	194
123	196
123	197
123	198
123	199
123	200
123	201
123	202
123	203
123	204
123	205
123	206
123	207
123	208
123	209
123	210
123	212
123	214
123	215
123	216
123	217
123	218
123	219
123	222
123	225
123	226
123	227
123	228
123	229
123	230
123	232
123	234
123	235
123	236
123	237
123	238
123	239
123	240
123	241
123	242
123	243
123	248
123	249
123	250
123	251
123	252
123	253
123	256
123	260
123	261
123	265
123	266
123	267
123	270
123	287
123	289
123	290
123	291
123	293
123	309
123	316
123	317
123	318
123	319
123	320
123	321
123	329
123	330
123	333
123	334
123	335
123	339
123	343
123	344
123	345
123	362
123	369
123	370
123	371
123	375
123	376
123	378
123	393
123	394
123	395
123	396
123	397
123	398
123	404
123	407
123	408
123	409
123	410
123	411
123	412
123	414
123	416
123	417
124	125
124	126
124	127
124	128
124	129
124	130
124	131
124	132
124	133
124	135
124	136
124	137
124	138
124	139
124	140
124	141
124	142
124	144
124	145
124	146
124	147
124	148
124	149
124	150
124	151
124	152
124	153
124	157
124	158
124	159
124	160
124	165
124	166
124	167
124	168
124	169
124	176
124	177
124	178
124	179
124	180
124	181
124	182
124	183
124	184
124	185
124	188
124	189
124	191
124	192
124	193
124	194
124	196
124	197
124	198
124	200
124	201
124	202
124	203
124	204
124	205
124	206
124	207
124	208
124	209
124	210
124	211
124	212
124	213
124	214
124	215
124	216
124	217
124	218
124	219
124	221
124	222
124	223
124	226
124	227
124	228
124	229
124	230
124	231
124	232
124	233
124	234
124	235
124	236
124	237
124	238
124	239
124	240
124	241
124	242
124	243
124	246
124	247
124	248
124	250
124	252
124	253
124	260
124	261
124	262
124	263
124	264
124	265
124	266
124	267
124	268
124	269
124	270
124	271
124	274
124	286
124	287
124	288
124	290
124	291
124	292
124	293
124	294
124	297
124	300
124	301
124	304
124	309
124	310
124	312
124	316
124	317
124	318
124	319
124	320
124	321
124	322
124	324
124	325
124	326
124	329
124	333
124	334
124	335
124	336
124	337
124	339
124	343
124	344
124	354
124	362
124	363
124	369
124	374
124	375
124	376
124	378
124	393
124	395
124	396
124	397
124	402
124	404
124	407
124	409
124	412
124	418
125	126
125	127
125	128
125	129
125	130
125	131
125	133
125	136
125	137
125	139
125	140
125	141
125	142
125	145
125	147
125	148
125	152
125	153
125	157
125	160
125	166
125	177
125	178
125	179
125	182
125	188
125	189
125	191
125	193
125	194
125	196
125	200
125	201
125	202
125	203
125	205
125	206
125	207
125	208
125	209
125	212
125	217
125	218
125	219
125	221
125	223
125	226
125	227
125	228
125	234
125	235
125	239
125	240
125	246
125	248
125	252
125	260
125	261
125	262
125	264
125	286
125	287
125	288
125	293
125	298
125	304
125	309
125	317
125	318
125	321
125	322
125	326
125	333
125	335
125	354
125	374
125	418
125	419
126	127
126	128
126	129
126	130
126	131
126	132
126	133
126	135
126	136
126	137
126	138
126	139
126	140
126	141
126	142
126	143
126	145
126	146
126	147
126	148
126	149
126	150
126	151
126	152
126	153
126	157
126	158
126	159
126	160
126	166
126	167
126	168
126	176
126	177
126	178
126	179
126	180
126	181
126	182
126	188
126	189
126	190
126	191
126	192
126	193
126	194
126	195
126	196
126	197
126	198
126	199
126	200
126	201
126	202
126	203
126	204
126	205
126	206
126	207
126	208
126	209
126	210
126	211
126	212
126	214
126	217
126	218
126	219
126	220
126	221
126	222
126	223
126	226
126	227
126	228
126	229
126	230
126	231
126	232
126	234
126	235
126	237
126	239
126	240
126	242
126	244
126	246
126	247
126	248
126	252
126	260
126	261
126	262
126	263
126	264
126	268
126	269
126	270
126	271
126	272
126	273
126	274
126	286
126	287
126	288
126	289
126	290
126	291
126	292
126	293
126	294
126	297
126	300
126	301
126	304
126	305
126	309
126	310
126	311
126	317
126	318
126	319
126	320
126	321
126	322
126	325
126	328
126	329
126	331
126	333
126	334
126	335
126	336
126	339
126	349
126	351
126	354
126	356
126	357
126	358
126	360
126	369
126	372
126	374
126	376
126	379
126	393
126	395
126	404
126	407
126	418
127	128
127	129
127	130
127	131
127	132
127	133
127	134
127	135
127	136
127	137
127	138
127	139
127	140
127	141
127	142
127	144
127	145
127	146
127	147
127	148
127	149
127	150
127	151
127	152
127	153
127	157
127	158
127	159
127	160
127	166
127	167
127	173
127	176
127	177
127	178
127	179
127	180
127	181
127	182
127	183
127	185
127	188
127	189
127	191
127	192
127	193
127	194
127	196
127	197
127	198
127	199
127	200
127	201
127	202
127	203
127	204
127	205
127	206
127	207
127	208
127	209
127	210
127	211
127	212
127	213
127	214
127	215
127	216
127	217
127	218
127	219
127	220
127	221
127	222
127	223
127	226
127	227
127	228
127	229
127	230
127	231
127	232
127	234
127	235
127	236
127	237
127	238
127	239
127	240
127	242
127	243
127	244
127	246
127	247
127	248
127	249
127	252
127	253
127	260
127	261
127	262
127	263
127	264
127	265
127	266
127	269
127	270
127	271
127	286
127	287
127	288
127	289
127	290
127	291
127	293
127	297
127	298
127	299
127	300
127	301
127	304
127	305
127	306
127	309
127	310
127	311
127	315
127	318
127	321
127	322
127	329
127	331
127	332
127	333
127	334
127	335
127	336
127	341
127	343
127	347
127	359
127	365
127	369
127	374
127	376
127	395
127	404
127	410
128	129
128	130
128	131
128	133
128	134
128	135
128	136
128	137
128	138
128	139
128	140
128	141
128	142
128	143
128	144
128	145
128	146
128	147
128	148
128	149
128	150
128	152
128	153
128	157
128	158
128	159
128	160
128	165
128	166
128	167
128	173
128	176
128	177
128	178
128	179
128	180
128	181
128	182
128	183
128	188
128	189
128	190
128	191
128	193
128	194
128	195
128	196
128	197
128	198
128	199
128	200
128	201
128	202
128	203
128	204
128	205
128	206
128	207
128	208
128	209
128	210
128	211
128	212
128	213
128	214
128	215
128	217
128	218
128	219
128	220
128	221
128	222
128	225
128	226
128	227
128	228
128	229
128	230
128	231
128	232
128	233
128	234
128	235
128	236
128	237
128	239
128	240
128	242
128	243
128	244
128	245
128	247
128	248
128	249
128	251
128	252
128	253
128	260
128	261
128	263
128	265
128	268
128	269
128	270
128	271
128	272
128	273
128	286
128	288
128	290
128	293
128	298
128	299
128	300
128	301
128	304
128	305
128	311
128	315
128	326
128	333
128	339
128	369
128	370
128	374
128	376
128	389
129	130
129	131
129	132
129	133
129	134
129	135
129	136
129	137
129	138
129	139
129	140
129	141
129	142
129	143
129	145
129	146
129	147
129	148
129	149
129	150
129	151
129	152
129	153
129	157
129	158
129	159
129	160
129	165
129	166
129	167
129	169
129	173
129	176
129	177
129	178
129	179
129	180
129	181
129	182
129	183
129	184
129	185
129	188
129	189
129	191
129	193
129	194
129	196
129	197
129	198
129	199
129	200
129	201
129	202
129	203
129	204
129	205
129	206
129	207
129	208
129	209
129	210
129	211
129	212
129	213
129	214
129	215
129	216
129	217
129	218
129	219
129	220
129	221
129	222
129	223
129	225
129	226
129	227
129	228
129	229
129	230
129	231
129	232
129	233
129	234
129	235
129	236
129	237
129	238
129	239
129	240
129	241
129	242
129	243
129	244
129	245
129	247
129	248
129	250
129	251
129	252
129	253
129	260
129	261
129	262
129	263
129	264
129	265
129	266
129	269
129	270
129	271
129	272
129	273
129	286
129	287
129	288
129	290
129	291
129	292
129	293
129	294
129	298
129	300
129	301
129	304
129	305
129	318
129	319
129	320
129	321
129	322
129	328
129	329
129	330
129	331
129	332
129	333
129	334
129	335
129	338
129	339
129	341
129	342
129	343
129	344
129	345
129	354
129	357
129	358
129	359
129	369
129	370
129	373
129	374
129	375
129	376
129	377
129	393
129	394
129	395
129	396
129	404
129	408
129	409
129	412
129	414
129	423
130	131
130	132
130	133
130	135
130	137
130	138
130	139
130	140
130	141
130	142
130	143
130	144
130	145
130	146
130	147
130	148
130	149
130	150
130	151
130	152
130	153
130	157
130	158
130	160
130	167
130	168
130	169
130	173
130	176
130	178
130	180
130	181
130	182
130	183
130	184
130	186
130	188
130	189
130	190
130	191
130	192
130	193
130	194
130	195
130	196
130	197
130	198
130	199
130	200
130	201
130	202
130	203
130	204
130	205
130	206
130	207
130	208
130	209
130	210
130	211
130	212
130	213
130	214
130	215
130	217
130	218
130	219
130	220
130	221
130	222
130	223
130	224
130	226
130	227
130	228
130	229
130	230
130	231
130	232
130	233
130	234
130	235
130	239
130	240
130	241
130	242
130	243
130	244
130	245
130	246
130	247
130	248
130	252
130	253
130	256
130	260
130	261
130	262
130	263
130	264
130	265
130	268
130	269
130	270
130	271
130	272
130	273
130	276
130	284
130	285
130	286
130	287
130	288
130	290
130	291
130	292
130	293
130	295
130	298
130	299
130	300
130	301
130	303
130	304
130	305
130	306
130	309
130	310
130	311
130	312
130	315
130	316
130	317
130	318
130	319
130	320
130	321
130	322
130	324
130	325
130	328
130	330
130	331
130	332
130	333
130	334
130	335
130	336
130	337
130	338
130	339
130	340
130	341
130	342
130	343
130	346
130	347
130	353
130	354
130	355
130	356
130	357
130	358
130	362
130	363
130	364
130	368
130	369
130	370
130	374
130	376
130	382
130	384
130	389
130	393
130	394
130	396
130	397
130	400
130	401
130	407
130	408
130	411
130	418
130	420
130	425
130	445
130	446
131	132
131	133
131	134
131	135
131	136
131	137
131	138
131	139
131	140
131	141
131	142
131	143
131	144
131	145
131	146
131	147
131	148
131	149
131	150
131	151
131	152
131	153
131	157
131	158
131	159
131	160
131	162
131	165
131	166
131	167
131	168
131	169
131	170
131	172
131	173
131	174
131	176
131	177
131	178
131	179
131	180
131	181
131	182
131	183
131	184
131	185
131	188
131	189
131	190
131	191
131	192
131	193
131	194
131	195
131	196
131	197
131	198
131	199
131	200
131	201
131	202
131	203
131	204
131	205
131	206
131	207
131	208
131	209
131	210
131	211
131	212
131	213
131	214
131	215
131	216
131	217
131	218
131	219
131	220
131	221
131	222
131	223
131	226
131	227
131	228
131	229
131	230
131	231
131	232
131	233
131	234
131	235
131	236
131	237
131	238
131	239
131	240
131	241
131	242
131	243
131	246
131	247
131	248
131	249
131	250
131	251
131	252
131	253
131	257
131	260
131	261
131	262
131	263
131	264
131	265
131	266
131	267
131	269
131	270
131	271
131	276
131	286
131	287
131	288
131	289
131	290
131	291
131	292
131	293
131	294
131	297
131	300
131	304
131	309
131	316
131	317
131	318
131	319
131	320
131	321
131	322
131	324
131	325
131	328
131	329
131	330
131	332
131	333
131	334
131	335
131	336
131	337
131	338
131	339
131	341
131	342
131	343
131	344
131	345
131	354
131	355
131	356
131	357
131	358
131	362
131	363
131	365
131	368
131	369
131	370
131	371
131	372
131	374
131	375
131	376
131	377
131	378
131	384
131	389
131	393
131	394
131	395
131	396
131	397
131	398
131	401
131	404
131	407
131	408
131	409
131	410
131	411
131	412
131	416
131	417
131	418
131	420
131	425
131	445
131	450
131	451
132	133
132	134
132	136
132	138
132	139
132	140
132	141
132	142
132	143
132	145
132	146
132	147
132	150
132	151
132	153
132	157
132	158
132	159
132	160
132	165
132	166
132	167
132	173
132	176
132	177
132	178
132	179
132	180
132	181
132	182
132	183
132	184
132	185
132	188
132	189
132	190
132	191
132	192
132	193
132	194
132	196
132	200
132	201
132	206
132	207
132	209
132	210
132	212
132	213
132	214
132	215
132	216
132	217
132	225
132	226
132	228
132	229
132	230
132	231
132	232
132	235
132	236
132	237
132	238
132	239
132	240
132	243
132	246
132	250
132	252
132	253
132	263
132	264
132	265
132	266
132	267
132	287
132	289
132	290
132	293
132	309
132	316
132	322
132	325
132	334
132	335
132	338
132	339
132	340
132	343
132	344
132	362
132	369
132	370
132	374
132	375
132	376
132	378
132	393
132	394
132	395
132	396
132	397
132	407
132	408
132	409
132	410
132	411
132	412
132	414
132	416
132	417
133	134
133	135
133	136
133	137
133	138
133	139
133	140
133	141
133	142
133	143
133	144
133	145
133	146
133	147
133	148
133	149
133	150
133	151
133	152
133	153
133	157
133	158
133	159
133	160
133	165
133	166
133	167
133	168
133	169
133	170
133	171
133	172
133	173
133	174
133	176
133	177
133	178
133	179
133	180
133	181
133	182
133	183
133	184
133	185
133	188
133	189
133	190
133	191
133	192
133	193
133	194
133	195
133	196
133	197
133	200
133	201
133	203
133	204
133	205
133	206
133	207
133	208
133	209
133	210
133	211
133	212
133	213
133	214
133	215
133	216
133	217
133	218
133	219
133	220
133	222
133	226
133	227
133	228
133	229
133	230
133	231
133	232
133	233
133	234
133	235
133	236
133	237
133	238
133	239
133	240
133	241
133	242
133	243
133	244
133	246
133	247
133	248
133	249
133	250
133	253
133	257
133	261
133	262
133	263
133	264
133	265
133	266
133	267
133	269
133	270
133	271
133	276
133	286
133	287
133	288
133	290
133	293
133	294
133	297
133	300
133	301
133	310
133	316
133	318
133	322
133	323
133	324
133	325
133	329
133	330
133	332
133	333
133	334
133	335
133	336
133	338
133	339
133	340
133	341
133	342
133	343
133	344
133	353
133	354
133	357
133	358
133	362
133	363
133	364
133	365
133	368
133	369
133	370
133	374
133	375
133	376
133	378
133	384
133	389
133	393
133	394
133	395
133	396
133	397
133	398
133	400
133	404
133	407
133	408
133	409
133	410
133	411
133	412
133	414
133	416
133	417
133	425
133	448
134	135
134	136
134	137
134	138
134	141
134	144
134	145
134	149
134	153
134	154
134	156
134	158
134	159
134	160
134	163
134	165
134	166
134	167
134	168
134	169
134	170
134	171
134	172
134	173
134	176
134	177
134	178
134	180
134	182
134	183
134	187
134	188
134	191
134	193
134	196
134	197
134	198
134	199
134	204
134	207
134	216
134	217
134	218
134	221
134	222
134	224
134	225
134	245
134	248
134	251
134	257
134	258
134	270
134	271
134	277
134	278
134	279
134	280
134	282
134	284
134	289
134	308
134	361
134	367
134	373
134	387
134	388
134	399
134	402
134	405
134	413
134	415
134	419
134	446
134	460
134	463
134	464
134	466
134	468
134	471
134	472
134	473
134	479
134	480
134	481
134	482
134	483
134	484
134	485
134	486
134	487
134	488
135	136
135	137
135	138
135	144
135	145
135	147
135	149
135	153
135	156
135	157
135	158
135	159
135	160
135	163
135	166
135	167
135	168
135	169
135	170
135	171
135	172
135	173
135	175
135	176
135	177
135	178
135	179
135	182
135	187
135	188
135	189
135	191
135	196
135	197
135	198
135	200
135	201
135	202
135	203
135	204
135	205
135	206
135	207
135	209
135	210
135	222
135	227
135	228
135	234
135	237
135	238
135	245
135	248
135	256
135	257
135	258
135	259
135	270
135	271
135	280
135	289
135	293
135	308
135	347
135	361
135	373
135	387
135	402
135	419
135	446
135	463
135	481
135	491
136	137
136	138
136	144
136	145
136	147
136	148
136	149
136	152
136	153
136	157
136	158
136	159
136	160
136	165
136	166
136	167
136	168
136	169
136	170
136	171
136	172
136	173
136	176
136	177
136	178
136	179
136	181
136	182
136	183
136	187
136	188
136	191
136	196
136	197
136	200
136	201
136	202
136	203
136	204
136	205
136	206
136	207
136	209
136	210
136	214
136	215
136	216
136	218
136	219
136	221
136	222
136	226
136	227
136	228
136	230
136	234
136	236
136	237
136	238
136	239
136	240
136	247
136	248
136	252
136	256
136	257
136	260
136	287
136	289
136	290
136	293
136	299
136	319
136	321
136	334
136	347
136	354
136	361
136	362
136	373
136	393
136	399
136	481
137	138
137	140
137	141
137	144
137	145
137	148
137	149
137	151
137	152
137	153
137	156
137	157
137	158
137	159
137	160
137	164
137	166
137	167
137	168
137	169
137	170
137	171
137	172
137	173
137	178
137	182
137	188
137	189
137	191
137	192
137	196
137	197
137	200
137	201
137	202
137	203
137	204
137	205
137	206
137	207
137	208
137	209
137	212
137	217
137	222
137	226
137	227
137	228
137	230
137	234
137	239
137	240
137	247
137	248
137	252
137	255
137	256
137	257
137	258
137	260
137	261
137	262
137	264
137	270
137	271
137	276
137	287
137	290
137	293
137	316
137	317
137	320
137	321
137	322
137	324
137	325
137	333
137	334
137	361
137	362
137	363
137	369
137	373
137	387
137	402
137	415
137	418
137	419
137	446
137	463
137	465
137	489
137	492
137	493
138	139
138	140
138	141
138	142
138	143
138	144
138	145
138	146
138	147
138	148
138	149
138	150
138	151
138	152
138	153
138	157
138	158
138	159
138	160
138	162
138	165
138	166
138	167
138	168
138	169
138	170
138	171
138	172
138	173
138	174
138	176
138	177
138	178
138	179
138	180
138	181
138	182
138	183
138	184
138	185
138	188
138	189
138	190
138	191
138	192
138	193
138	194
138	195
138	196
138	197
138	198
138	200
138	201
138	203
138	204
138	205
138	206
138	207
138	208
138	209
138	210
138	211
138	212
138	213
138	214
138	215
138	216
138	217
138	218
138	219
138	220
138	222
138	225
138	228
138	229
138	230
138	231
138	232
138	234
138	235
138	236
138	237
138	238
138	239
138	240
138	241
138	242
138	243
138	246
138	247
138	248
138	249
138	250
138	253
138	256
138	257
138	261
138	262
138	263
138	264
138	265
138	266
138	267
138	270
138	271
138	274
138	276
138	286
138	287
138	288
138	290
138	291
138	294
138	295
138	297
138	299
138	300
138	310
138	314
138	318
138	321
138	322
138	323
138	324
138	325
138	329
138	330
138	332
138	335
138	338
138	339
138	340
138	341
138	342
138	343
138	344
138	353
138	354
138	355
138	357
138	358
138	363
138	364
138	365
138	366
138	368
138	369
138	370
138	371
138	374
138	375
138	376
138	378
138	384
138	393
138	394
138	395
138	396
138	398
138	399
138	404
138	409
138	410
138	412
138	425
138	428
138	450
139	140
139	141
139	142
139	143
139	144
139	145
139	146
139	147
139	148
139	149
139	150
139	151
139	152
139	153
139	157
139	158
139	159
139	160
139	166
139	167
139	168
139	169
139	173
139	174
139	177
139	179
139	180
139	181
139	182
139	183
139	184
139	185
139	188
139	189
139	190
139	192
139	193
139	194
139	195
139	196
139	197
139	200
139	201
139	203
139	205
139	206
139	207
139	208
139	209
139	210
139	211
139	212
139	213
139	214
139	215
139	216
139	217
139	218
139	219
139	220
139	228
139	229
139	230
139	231
139	232
139	234
139	235
139	237
139	239
139	240
139	241
139	242
139	243
139	246
139	248
139	250
139	253
139	261
139	262
139	263
139	264
139	265
139	266
139	267
139	269
139	271
139	276
139	286
139	287
139	290
139	292
139	294
139	297
139	300
139	310
139	316
139	319
139	323
139	324
139	325
139	329
139	330
139	335
139	336
139	338
139	339
139	340
139	341
139	342
139	343
139	344
139	345
139	353
139	354
139	355
139	357
139	358
139	364
139	365
139	367
139	368
139	369
139	370
139	371
139	374
139	375
139	376
139	377
139	378
139	389
139	393
139	394
139	395
139	396
139	404
139	409
139	410
139	412
139	420
139	425
139	450
139	506
140	141
140	142
140	143
140	144
140	145
140	146
140	147
140	148
140	149
140	150
140	151
140	152
140	153
140	157
140	158
140	159
140	166
140	167
140	168
140	169
140	170
140	173
140	177
140	178
140	179
140	180
140	181
140	182
140	183
140	184
140	185
140	188
140	189
140	190
140	192
140	193
140	194
140	195
140	196
140	197
140	200
140	201
140	203
140	208
140	209
140	210
140	211
140	212
140	213
140	214
140	215
140	216
140	217
140	218
140	220
140	223
140	226
140	228
140	230
140	231
140	232
140	235
140	239
140	240
140	242
140	247
140	248
140	250
140	260
140	261
140	262
140	263
140	264
140	265
140	266
140	269
140	270
140	276
140	286
140	287
140	288
140	290
140	297
140	300
140	310
140	316
140	318
140	323
140	324
140	325
140	332
140	335
140	338
140	339
140	340
140	341
140	342
140	343
140	344
140	345
140	353
140	354
140	357
140	358
140	362
140	363
140	364
140	365
140	368
140	369
140	370
140	374
140	375
140	376
140	378
140	383
140	384
140	389
140	393
140	394
140	395
140	396
140	397
140	408
140	409
140	410
140	411
140	412
140	414
140	416
140	417
140	425
140	428
140	504
140	506
141	142
141	143
141	144
141	145
141	146
141	147
141	148
141	149
141	150
141	151
141	152
141	153
141	157
141	158
141	160
141	166
141	167
141	168
141	169
141	170
141	171
141	172
141	173
141	174
141	176
141	177
141	178
141	180
141	181
141	182
141	184
141	185
141	186
141	188
141	189
141	191
141	192
141	193
141	194
141	195
141	196
141	197
141	198
141	199
141	200
141	202
141	203
141	204
141	205
141	206
141	207
141	208
141	209
141	210
141	211
141	212
141	213
141	214
141	215
141	217
141	218
141	219
141	220
141	221
141	222
141	223
141	224
141	227
141	228
141	229
141	230
141	231
141	232
141	233
141	234
141	235
141	236
141	240
141	241
141	242
141	243
141	244
141	245
141	246
141	247
141	248
141	250
141	252
141	253
141	254
141	256
141	257
141	259
141	260
141	261
141	262
141	263
141	264
141	265
141	266
141	267
141	268
141	269
141	270
141	271
141	272
141	273
141	274
141	275
141	276
141	284
141	285
141	286
141	287
141	288
141	291
141	292
141	293
141	294
141	295
141	296
141	297
141	298
141	299
141	300
141	301
141	302
141	303
141	304
141	305
141	307
141	310
141	311
141	312
141	313
141	314
141	315
141	317
141	318
141	319
141	320
141	321
141	322
141	323
141	324
141	325
141	326
141	328
141	331
141	332
141	333
141	334
141	335
141	336
141	338
141	339
141	340
141	341
141	342
141	343
141	344
141	345
141	347
141	348
141	351
141	352
141	353
141	354
141	355
141	357
141	358
141	359
141	360
141	361
141	363
141	364
141	365
141	366
141	367
141	368
141	369
141	371
141	374
141	375
141	376
141	378
141	380
141	383
141	384
141	389
141	390
141	391
141	393
141	394
141	396
141	400
141	404
141	406
141	409
141	410
141	412
141	414
141	415
141	418
141	420
141	421
141	422
141	425
141	427
141	428
141	431
141	432
141	434
141	435
141	436
141	438
141	442
141	443
141	447
141	448
141	499
141	504
141	505
141	506
141	524
141	531
141	532
141	533
141	534
141	535
142	143
142	144
142	145
142	146
142	147
142	148
142	149
142	150
142	151
142	152
142	153
142	157
142	158
142	160
142	167
142	168
142	169
142	170
142	172
142	173
142	178
142	180
142	181
142	182
142	183
142	184
142	186
142	188
142	189
142	191
142	192
142	193
142	194
142	195
142	196
142	197
142	198
142	200
142	201
142	202
142	203
142	204
142	205
142	206
142	207
142	208
142	209
142	210
142	211
142	212
142	213
142	214
142	215
142	217
142	218
142	219
142	220
142	221
142	222
142	223
142	224
142	227
142	228
142	229
142	230
142	231
142	232
142	233
142	234
142	235
142	239
142	240
142	242
142	243
142	244
142	245
142	246
142	247
142	248
142	250
142	252
142	254
142	256
142	257
142	259
142	260
142	261
142	262
142	263
142	264
142	265
142	267
142	268
142	269
142	270
142	271
142	272
142	273
142	274
142	276
142	284
142	285
142	286
142	287
142	288
142	290
142	291
142	292
142	293
142	295
142	296
142	297
142	298
142	299
142	300
142	301
142	302
142	303
142	304
142	305
142	310
142	311
142	312
142	313
142	314
142	315
142	316
142	317
142	318
142	319
142	320
142	322
142	323
142	324
142	325
142	326
142	327
142	328
142	329
142	331
142	332
142	333
142	335
142	336
142	338
142	339
142	340
142	341
142	342
142	343
142	344
142	345
142	346
142	347
142	348
142	351
142	352
142	353
142	354
142	355
142	356
142	357
142	358
142	359
142	360
142	363
142	364
142	365
142	366
142	367
142	368
142	369
142	370
142	371
142	372
142	374
142	376
142	377
142	378
142	379
142	382
142	383
142	384
142	389
142	391
142	393
142	394
142	395
142	396
142	397
142	404
142	415
142	418
142	420
142	421
142	425
142	428
142	429
142	431
142	432
142	434
142	435
142	439
142	440
142	505
142	515
142	521
142	541
142	544
142	545
143	144
143	145
143	146
143	147
143	148
143	149
143	150
143	151
143	152
143	153
143	157
143	158
143	159
143	160
143	165
143	167
143	168
143	169
143	170
143	171
143	172
143	173
143	174
143	180
143	181
143	182
143	183
143	188
143	189
143	192
143	193
143	194
143	195
143	196
143	197
143	198
143	200
143	203
143	204
143	205
143	207
143	208
143	209
143	210
143	211
143	212
143	213
143	214
143	215
143	217
143	218
143	219
143	220
143	221
143	222
143	223
143	224
143	228
143	229
143	230
143	231
143	232
143	233
143	234
143	239
143	240
143	244
143	245
143	246
143	247
143	248
143	250
143	256
143	260
143	261
143	262
143	263
143	264
143	265
143	266
143	267
143	268
143	270
143	271
143	274
143	275
143	276
143	284
143	285
143	286
143	287
143	288
143	291
143	292
143	296
143	297
143	299
143	300
143	301
143	302
143	303
143	304
143	305
143	306
143	310
143	311
143	312
143	314
143	315
143	318
143	319
143	320
143	322
143	323
143	324
143	325
143	326
143	327
143	328
143	331
143	332
143	335
143	336
143	337
143	338
143	339
143	340
143	341
143	342
143	343
143	344
143	345
143	347
143	349
143	351
143	353
143	354
143	355
143	356
143	357
143	358
143	359
143	360
143	361
143	363
143	364
143	365
143	366
143	368
143	369
143	370
143	371
143	374
143	375
143	378
143	380
143	383
143	384
143	393
143	394
143	396
143	403
143	408
143	415
143	418
143	423
143	426
143	428
143	432
143	448
143	486
143	489
143	499
143	503
143	526
143	554
143	561
144	145
144	146
144	147
144	148
144	149
144	150
144	151
144	152
144	153
144	157
144	158
144	160
144	162
144	167
144	168
144	169
144	170
144	171
144	172
144	173
144	174
144	178
144	180
144	181
144	184
144	185
144	186
144	188
144	189
144	192
144	193
144	194
144	195
144	196
144	197
144	198
144	203
144	204
144	205
144	209
144	210
144	211
144	212
144	213
144	214
144	215
144	216
144	217
144	218
144	219
144	220
144	221
144	222
144	223
144	224
144	228
144	229
144	230
144	231
144	232
144	233
144	234
144	235
144	240
144	242
144	243
144	244
144	245
144	246
144	247
144	248
144	250
144	253
144	254
144	255
144	256
144	257
144	259
144	260
144	261
144	262
144	263
144	264
144	265
144	266
144	267
144	268
144	269
144	270
144	271
144	272
144	273
144	274
144	275
144	276
144	284
144	285
144	286
144	287
144	288
144	291
144	292
144	293
144	295
144	296
144	297
144	298
144	299
144	300
144	301
144	302
144	303
144	304
144	305
144	307
144	310
144	311
144	312
144	313
144	314
144	315
144	318
144	319
144	322
144	323
144	324
144	325
144	326
144	327
144	328
144	330
144	331
144	332
144	334
144	335
144	336
144	337
144	338
144	339
144	340
144	341
144	342
144	343
144	344
144	345
144	346
144	347
144	348
144	349
144	351
144	353
144	354
144	355
144	358
144	359
144	360
144	361
144	363
144	364
144	365
144	366
144	367
144	368
144	369
144	374
144	375
144	376
144	378
144	381
144	382
144	383
144	384
144	389
144	390
144	391
144	393
144	394
144	395
144	396
144	398
144	399
144	403
144	408
144	410
144	412
144	414
144	415
144	418
144	428
144	429
144	432
144	435
144	440
144	443
144	447
144	448
144	465
144	486
144	487
144	488
144	500
144	504
144	505
144	506
144	515
144	524
144	526
144	533
144	534
144	535
144	536
144	539
144	540
144	541
144	545
144	548
144	554
144	562
144	563
145	146
145	147
145	148
145	149
145	150
145	151
145	152
145	153
145	157
145	158
145	159
145	160
145	166
145	167
145	168
145	169
145	170
145	171
145	172
145	173
145	174
145	177
145	178
145	179
145	180
145	181
145	182
145	184
145	185
145	188
145	189
145	190
145	191
145	192
145	193
145	194
145	195
145	196
145	197
145	198
145	199
145	200
145	201
145	202
145	203
145	204
145	205
145	206
145	207
145	208
145	209
145	210
145	211
145	212
145	213
145	214
145	215
145	216
145	217
145	218
145	219
145	220
145	221
145	222
145	223
145	224
145	227
145	228
145	229
145	230
145	231
145	232
145	233
145	234
145	235
145	236
145	237
145	239
145	240
145	241
145	242
145	243
145	244
145	245
145	246
145	247
145	248
145	250
145	251
145	252
145	253
145	254
145	256
145	257
145	259
145	260
145	261
145	262
145	263
145	264
145	265
145	266
145	267
145	268
145	269
145	270
145	271
145	272
145	273
145	274
145	275
145	276
145	284
145	285
145	286
145	287
145	288
145	290
145	291
145	293
145	294
145	295
145	296
145	297
145	298
145	299
145	300
145	301
145	302
145	303
145	304
145	305
145	306
145	307
145	310
145	311
145	312
145	313
145	314
145	315
145	317
145	321
145	322
145	323
145	324
145	325
145	326
145	327
145	328
145	329
145	330
145	331
145	332
145	333
145	334
145	335
145	338
145	339
145	340
145	341
145	342
145	343
145	344
145	345
145	346
145	347
145	349
145	350
145	351
145	353
145	354
145	355
145	357
145	358
145	359
145	361
145	363
145	364
145	365
145	366
145	367
145	368
145	369
145	374
145	375
145	376
145	377
145	378
145	383
145	384
145	389
145	391
145	393
145	394
145	395
145	396
145	397
145	398
145	399
145	400
145	404
145	409
145	410
145	412
145	415
145	420
145	422
145	423
145	426
145	428
145	431
145	432
145	435
145	448
145	449
145	487
145	498
145	504
145	505
145	506
145	524
145	541
145	546
145	553
146	147
146	148
146	149
146	150
146	151
146	152
146	153
146	157
146	158
146	159
146	160
146	165
146	166
146	167
146	168
146	169
146	170
146	172
146	173
146	176
146	177
146	178
146	179
146	180
146	181
146	182
146	183
146	184
146	185
146	188
146	189
146	190
146	192
146	193
146	194
146	195
146	196
146	197
146	198
146	200
146	201
146	202
146	203
146	205
146	207
146	208
146	209
146	210
146	211
146	212
146	213
146	214
146	215
146	216
146	217
146	218
146	219
146	220
146	222
146	223
146	224
146	226
146	227
146	228
146	229
146	230
146	231
146	232
146	233
146	234
146	235
146	236
146	237
146	238
146	239
146	240
146	241
146	242
146	243
146	244
146	246
146	248
146	250
146	253
146	254
146	262
146	263
146	264
146	265
146	266
146	267
146	270
146	271
146	274
146	276
146	284
146	286
146	287
146	288
146	290
146	291
146	293
146	294
146	297
146	299
146	300
146	310
146	311
146	312
146	316
146	319
146	322
146	323
146	324
146	325
146	329
146	330
146	332
146	335
146	338
146	339
146	340
146	341
146	342
146	343
146	344
146	345
146	353
146	354
146	355
146	357
146	358
146	362
146	364
146	365
146	368
146	369
146	370
146	374
146	375
146	376
146	378
146	383
146	384
146	393
146	394
146	395
146	396
146	397
146	398
146	408
146	409
146	410
146	411
146	412
146	414
146	416
146	417
146	425
146	428
146	432
146	435
146	487
146	524
146	540
147	148
147	149
147	150
147	151
147	152
147	153
147	157
147	158
147	159
147	160
147	162
147	166
147	167
147	169
147	170
147	171
147	172
147	173
147	176
147	177
147	178
147	179
147	180
147	181
147	182
147	184
147	185
147	186
147	188
147	189
147	193
147	194
147	195
147	196
147	197
147	200
147	201
147	202
147	203
147	204
147	205
147	207
147	208
147	209
147	210
147	211
147	212
147	213
147	214
147	215
147	216
147	217
147	218
147	219
147	220
147	221
147	222
147	223
147	224
147	227
147	228
147	230
147	231
147	232
147	233
147	234
147	235
147	237
147	239
147	240
147	241
147	242
147	243
147	244
147	246
147	247
147	248
147	250
147	253
147	254
147	257
147	262
147	263
147	265
147	266
147	267
147	268
147	269
147	270
147	271
147	272
147	273
147	274
147	275
147	276
147	286
147	287
147	288
147	290
147	291
147	293
147	294
147	295
147	296
147	297
147	298
147	299
147	300
147	301
147	302
147	304
147	305
147	306
147	310
147	311
147	312
147	313
147	314
147	315
147	316
147	323
147	325
147	327
147	329
147	330
147	331
147	332
147	333
147	335
147	339
147	340
147	341
147	342
147	343
147	344
147	345
147	346
147	347
147	351
147	352
147	353
147	354
147	358
147	359
147	360
147	361
147	362
147	365
147	366
147	368
147	369
147	374
147	375
147	376
147	378
147	381
147	383
147	384
147	393
147	395
147	396
147	397
147	398
147	399
147	400
147	404
147	409
147	410
147	412
147	427
147	428
147	429
147	432
147	435
147	447
147	448
147	504
147	524
147	526
147	558
147	562
148	149
148	150
148	151
148	152
148	153
148	158
148	159
148	162
148	169
148	170
148	171
148	172
148	173
148	174
148	178
148	179
148	180
148	181
148	182
148	184
148	185
148	186
148	188
148	189
148	192
148	193
148	194
148	195
148	196
148	197
148	198
148	200
148	202
148	203
148	204
148	205
148	206
148	207
148	209
148	210
148	211
148	212
148	213
148	214
148	215
148	216
148	217
148	218
148	219
148	220
148	221
148	222
148	223
148	224
148	227
148	228
148	229
148	230
148	231
148	232
148	233
148	234
148	235
148	240
148	241
148	242
148	243
148	244
148	245
148	247
148	248
148	254
148	255
148	256
148	257
148	259
148	260
148	261
148	262
148	263
148	264
148	265
148	266
148	267
148	268
148	269
148	270
148	271
148	272
148	273
148	274
148	275
148	276
148	284
148	285
148	286
148	287
148	288
148	291
148	292
148	293
148	294
148	295
148	296
148	297
148	298
148	299
148	300
148	301
148	302
148	303
148	304
148	305
148	306
148	307
148	310
148	311
148	312
148	313
148	314
148	315
148	317
148	318
148	319
148	323
148	324
148	325
148	326
148	327
148	328
148	329
148	331
148	332
148	335
148	336
148	338
148	339
148	340
148	341
148	342
148	343
148	344
148	345
148	346
148	347
148	348
148	349
148	350
148	351
148	352
148	353
148	354
148	355
148	358
148	359
148	360
148	361
148	364
148	365
148	366
148	367
148	368
148	375
148	376
148	377
148	378
148	380
148	381
148	382
148	383
148	384
148	390
148	391
148	395
148	398
148	400
148	401
148	404
148	409
148	412
148	415
148	421
148	423
148	426
148	428
148	429
148	431
148	432
148	434
148	435
148	437
148	438
148	440
148	441
148	445
148	447
148	448
148	449
148	490
148	500
148	504
148	505
148	506
148	510
148	514
148	515
148	524
148	526
148	533
148	534
148	536
148	539
148	540
148	541
148	544
148	545
148	547
148	554
148	555
148	564
149	150
149	151
149	152
149	153
149	157
149	158
149	159
149	162
149	166
149	167
149	168
149	169
149	170
149	171
149	172
149	173
149	176
149	177
149	178
149	179
149	180
149	181
149	182
149	184
149	185
149	188
149	189
149	191
149	192
149	193
149	194
149	195
149	196
149	197
149	198
149	200
149	201
149	202
149	203
149	204
149	205
149	207
149	208
149	209
149	210
149	211
149	212
149	213
149	214
149	215
149	216
149	217
149	218
149	219
149	220
149	221
149	222
149	223
149	224
149	227
149	228
149	230
149	231
149	232
149	233
149	234
149	235
149	239
149	240
149	241
149	242
149	243
149	244
149	247
149	248
149	250
149	253
149	254
149	256
149	257
149	259
149	260
149	261
149	262
149	263
149	264
149	265
149	266
149	267
149	268
149	269
149	270
149	271
149	274
149	276
149	284
149	286
149	287
149	288
149	290
149	291
149	293
149	294
149	297
149	298
149	299
149	300
149	301
149	302
149	303
149	304
149	305
149	310
149	311
149	312
149	314
149	315
149	318
149	323
149	327
149	328
149	329
149	330
149	331
149	332
149	333
149	340
149	341
149	342
149	343
149	344
149	345
149	346
149	347
149	353
149	354
149	358
149	361
149	364
149	365
149	366
149	368
149	369
149	374
149	375
149	376
149	377
149	379
149	383
149	384
149	393
149	395
149	398
149	399
149	400
149	404
149	412
149	428
149	429
149	432
149	448
149	458
149	489
149	504
149	515
149	524
149	564
150	151
150	152
150	153
150	157
150	158
150	159
150	160
150	166
150	167
150	169
150	170
150	171
150	172
150	173
150	176
150	177
150	178
150	179
150	180
150	181
150	182
150	183
150	184
150	185
150	188
150	189
150	193
150	194
150	195
150	196
150	197
150	200
150	201
150	203
150	205
150	208
150	209
150	210
150	211
150	212
150	213
150	214
150	215
150	216
150	217
150	218
150	219
150	221
150	222
150	226
150	228
150	229
150	230
150	231
150	232
150	233
150	234
150	235
150	237
150	238
150	239
150	240
150	241
150	242
150	243
150	244
150	247
150	248
150	250
150	253
150	257
150	261
150	263
150	265
150	266
150	267
150	270
150	271
150	276
150	286
150	290
150	291
150	294
150	295
150	297
150	299
150	300
150	310
150	311
150	315
150	316
150	323
150	324
150	325
150	329
150	330
150	332
150	335
150	339
150	341
150	342
150	343
150	344
150	353
150	357
150	358
150	362
150	365
150	368
150	369
150	370
150	374
150	375
150	376
150	378
150	393
150	394
150	395
150	397
150	398
150	400
150	408
150	409
150	410
150	412
150	414
150	417
151	152
151	153
151	158
151	159
151	160
151	162
151	166
151	167
151	168
151	169
151	170
151	171
151	172
151	173
151	174
151	178
151	180
151	181
151	182
151	183
151	185
151	188
151	189
151	191
151	192
151	193
151	194
151	195
151	196
151	197
151	198
151	200
151	201
151	203
151	204
151	205
151	206
151	207
151	208
151	209
151	210
151	211
151	212
151	213
151	214
151	217
151	218
151	219
151	220
151	223
151	224
151	228
151	229
151	230
151	231
151	232
151	233
151	234
151	239
151	240
151	244
151	245
151	246
151	247
151	248
151	256
151	259
151	260
151	261
151	262
151	263
151	264
151	266
151	267
151	270
151	271
151	276
151	284
151	286
151	287
151	288
151	290
151	291
151	292
151	293
151	295
151	297
151	298
151	299
151	300
151	301
151	304
151	305
151	309
151	310
151	311
151	314
151	316
151	318
151	319
151	321
151	322
151	324
151	325
151	328
151	332
151	334
151	335
151	336
151	337
151	338
151	339
151	341
151	343
151	351
151	354
151	355
151	356
151	357
151	358
151	361
151	363
151	364
151	365
151	366
151	369
151	370
151	374
151	389
151	393
151	394
151	396
151	397
151	408
151	420
151	425
151	464
151	486
151	487
151	613
151	614
152	153
152	157
152	158
152	159
152	160
152	162
152	166
152	167
152	169
152	170
152	171
152	173
152	174
152	177
152	178
152	179
152	180
152	182
152	183
152	188
152	189
152	190
152	191
152	192
152	193
152	194
152	196
152	197
152	198
152	200
152	201
152	202
152	203
152	204
152	205
152	206
152	207
152	208
152	209
152	211
152	212
152	213
152	214
152	215
152	217
152	218
152	219
152	222
152	223
152	227
152	228
152	229
152	230
152	231
152	234
152	238
152	239
152	240
152	245
152	246
152	247
152	248
152	252
152	256
152	260
152	261
152	262
152	263
152	264
152	266
152	270
152	271
152	276
152	284
152	286
152	287
152	288
152	290
152	291
152	292
152	293
152	300
152	305
152	309
152	310
152	317
152	318
152	319
152	320
152	321
152	322
152	324
152	325
152	333
152	334
152	335
152	336
152	337
152	354
152	355
152	356
152	357
152	359
152	362
152	363
152	364
152	369
152	372
152	374
152	393
152	397
152	449
152	538
152	548
152	550
152	553
153	158
153	159
153	160
153	161
153	162
153	164
153	167
153	168
153	169
153	170
153	171
153	172
153	173
153	174
153	175
153	178
153	180
153	181
153	182
153	184
153	185
153	186
153	187
153	188
153	189
153	191
153	192
153	193
153	194
153	195
153	196
153	197
153	198
153	200
153	201
153	203
153	204
153	205
153	206
153	207
153	208
153	209
153	210
153	211
153	212
153	213
153	214
153	215
153	216
153	217
153	218
153	219
153	220
153	221
153	222
153	223
153	224
153	228
153	229
153	230
153	231
153	232
153	233
153	234
153	235
153	239
153	240
153	242
153	243
153	244
153	245
153	246
153	247
153	248
153	252
153	253
153	254
153	256
153	257
153	259
153	260
153	261
153	262
153	263
153	264
153	265
153	266
153	267
153	268
153	269
153	270
153	271
153	272
153	273
153	274
153	275
153	276
153	284
153	285
153	286
153	287
153	288
153	291
153	292
153	293
153	295
153	296
153	297
153	298
153	299
153	300
153	301
153	302
153	303
153	304
153	305
153	306
153	307
153	309
153	310
153	311
153	312
153	313
153	314
153	315
153	317
153	318
153	319
153	320
153	321
153	322
153	323
153	324
153	325
153	326
153	327
153	328
153	329
153	330
153	331
153	332
153	334
153	335
153	336
153	338
153	339
153	341
153	342
153	343
153	344
153	345
153	346
153	347
153	348
153	349
153	350
153	351
153	352
153	353
153	354
153	355
153	358
153	359
153	360
153	361
153	363
153	364
153	365
153	366
153	367
153	368
153	369
153	370
153	374
153	375
153	376
153	378
153	379
153	380
153	381
153	382
153	383
153	384
153	390
153	391
153	393
153	395
153	396
153	398
153	399
153	400
153	401
153	403
153	404
153	406
153	415
153	421
153	422
153	423
153	424
153	425
153	426
153	427
153	428
153	429
153	430
153	431
153	432
153	433
153	434
153	435
153	437
153	438
153	439
153	440
153	441
153	443
153	447
153	448
153	449
153	458
153	459
153	486
153	487
153	488
153	489
153	490
153	498
153	499
153	500
153	503
153	504
153	505
153	506
153	514
153	515
153	518
153	521
153	522
153	524
153	526
153	527
153	528
153	529
153	532
153	533
153	534
153	535
153	536
153	537
153	538
153	539
153	540
153	541
153	542
153	543
153	544
153	545
153	546
153	547
153	548
153	549
153	550
153	551
153	552
153	553
153	554
153	555
153	556
153	557
153	558
153	560
153	561
153	562
153	572
153	573
153	575
153	576
153	577
153	578
153	579
153	582
153	585
153	586
153	587
153	588
153	589
153	590
153	591
153	592
153	593
153	594
153	595
153	596
153	597
153	598
153	599
153	600
153	608
153	625
153	662
153	663
153	664
154	155
154	156
154	163
154	164
154	175
154	187
154	256
154	258
154	277
154	278
154	279
154	280
154	281
154	282
154	283
154	308
154	373
154	385
154	386
154	387
154	388
154	392
154	402
154	403
154	405
154	413
154	415
154	419
154	444
154	453
154	454
154	455
154	456
154	460
154	461
154	462
154	464
154	466
154	467
154	468
154	469
154	470
154	471
154	472
154	473
154	474
154	475
154	476
154	478
154	479
154	480
154	481
154	482
154	483
154	485
154	486
154	491
154	492
154	493
154	494
154	495
154	496
154	497
154	498
154	499
154	500
154	501
154	502
154	503
154	507
154	508
154	509
154	510
154	511
154	516
154	518
154	523
154	563
154	601
154	603
154	613
154	614
154	615
154	616
154	620
154	621
154	622
154	623
154	624
154	628
154	629
154	630
154	631
154	632
154	633
154	634
154	635
154	636
154	637
154	638
154	639
154	640
154	641
154	642
154	643
154	644
154	645
154	646
154	647
154	648
154	649
154	650
154	651
154	652
154	653
154	654
154	655
154	656
154	657
154	658
154	659
154	660
154	661
154	662
154	663
154	664
154	666
154	668
154	669
154	671
154	672
154	673
154	674
154	675
154	678
154	679
154	680
154	681
154	682
154	683
154	684
154	685
154	686
154	687
154	690
154	691
154	692
154	693
154	694
154	695
154	696
154	697
154	698
154	699
154	700
154	701
154	702
154	703
154	704
154	705
154	707
154	708
154	710
154	711
154	712
154	713
154	714
154	715
154	716
154	717
154	718
154	719
154	720
154	721
154	722
154	723
154	724
154	725
154	726
154	727
154	728
154	729
154	730
154	731
154	732
154	733
154	734
154	735
154	736
154	737
154	739
154	740
154	741
154	742
154	743
154	744
154	747
154	748
154	751
154	752
154	757
154	759
154	764
154	766
154	768
154	772
154	773
154	774
154	775
154	779
154	780
154	781
154	782
154	785
154	788
154	793
154	794
154	795
154	798
154	802
154	803
154	804
154	806
154	809
154	810
154	814
154	815
154	830
154	841
154	845
154	870
154	874
154	877
154	878
154	879
155	156
155	163
155	164
155	175
155	187
155	256
155	258
155	277
155	278
155	279
155	280
155	281
155	282
155	283
155	308
155	373
155	385
155	386
155	388
155	402
155	403
155	405
155	413
155	444
155	454
155	456
155	459
155	460
155	461
155	464
155	466
155	467
155	468
155	469
155	470
155	471
155	472
155	473
155	475
155	476
155	478
155	479
155	480
155	481
155	482
155	483
155	484
155	485
155	491
155	492
155	493
155	495
155	496
155	497
155	499
155	500
155	501
155	503
155	507
155	508
155	509
155	510
155	523
155	563
155	613
155	614
155	620
155	621
155	622
155	623
155	629
155	630
155	631
155	632
155	633
155	634
155	635
155	636
155	637
155	638
155	639
155	641
155	642
155	643
155	644
155	645
155	646
155	647
155	648
155	649
155	650
155	651
155	652
155	653
155	654
155	655
155	656
155	661
155	663
155	665
155	666
155	668
155	669
155	671
155	672
155	673
155	674
155	677
155	678
155	679
155	680
155	682
155	684
155	685
155	686
155	687
155	691
155	692
155	694
155	695
155	696
155	697
155	698
155	699
155	700
155	701
155	702
155	703
155	704
155	705
155	707
155	711
155	712
155	713
155	714
155	715
155	716
155	717
155	718
155	723
155	725
155	726
155	727
155	729
155	730
155	732
155	736
155	739
155	740
155	741
155	742
155	747
155	766
155	775
155	785
155	786
155	793
155	794
155	796
155	809
155	814
156	159
156	163
156	164
156	168
156	175
156	187
156	255
156	256
156	258
156	277
156	278
156	279
156	280
156	281
156	282
156	283
156	308
156	373
156	385
156	386
156	387
156	388
156	392
156	402
156	403
156	405
156	413
156	415
156	419
156	444
156	446
156	454
156	456
156	459
156	460
156	461
156	462
156	463
156	464
156	465
156	466
156	467
156	468
156	469
156	470
156	471
156	472
156	473
156	475
156	476
156	477
156	478
156	479
156	480
156	481
156	482
156	483
156	485
156	486
156	487
156	488
156	491
156	495
156	496
156	497
156	498
156	499
156	501
156	503
156	507
156	508
156	509
156	510
156	513
156	516
156	517
156	518
156	519
156	523
156	530
156	563
156	613
156	614
156	621
156	622
156	623
156	626
156	628
156	629
156	630
156	631
156	632
156	633
156	634
156	635
156	636
156	637
156	638
156	639
156	640
156	641
156	642
156	643
156	644
156	645
156	646
156	647
156	648
156	649
156	650
156	651
156	652
156	653
156	655
156	656
156	657
156	663
156	665
156	666
156	669
156	672
156	673
156	674
156	678
156	680
156	681
156	682
156	684
156	685
156	686
156	687
156	691
156	694
156	695
156	696
156	697
156	698
156	699
156	700
156	701
156	702
156	703
156	704
156	707
156	709
156	711
156	712
156	713
156	714
156	715
156	716
156	717
156	718
156	719
156	720
156	723
156	726
156	727
156	730
156	731
156	732
156	733
156	739
156	740
156	741
156	742
156	752
156	757
156	760
156	764
156	766
156	785
156	786
156	788
156	791
156	793
156	794
156	796
156	800
156	801
156	806
156	809
156	831
156	844
156	873
156	877
157	158
157	159
157	160
157	165
157	166
157	167
157	173
157	176
157	177
157	178
157	179
157	180
157	181
157	182
157	183
157	184
157	185
157	188
157	189
157	190
157	191
157	192
157	193
157	194
157	196
157	197
157	199
157	200
157	201
157	202
157	203
157	205
157	206
157	207
157	208
157	209
157	210
157	212
157	213
157	214
157	215
157	216
157	217
157	218
157	226
157	228
157	229
157	230
157	232
157	234
157	235
157	236
157	237
157	238
157	239
157	240
157	242
157	243
157	248
157	250
157	251
157	252
157	261
157	262
157	264
157	265
157	266
157	286
157	287
157	289
157	290
157	293
157	300
157	309
157	316
157	317
157	320
157	321
157	322
157	324
157	325
157	330
157	333
157	334
157	335
157	341
157	343
157	362
157	363
157	369
157	370
157	378
157	393
157	394
157	395
157	396
157	397
157	398
157	407
157	408
157	409
157	410
157	411
157	412
157	416
157	418
158	159
158	160
158	162
158	165
158	166
158	167
158	168
158	173
158	176
158	177
158	178
158	179
158	180
158	181
158	182
158	183
158	188
158	189
158	190
158	191
158	192
158	193
158	194
158	195
158	196
158	197
158	198
158	200
158	201
158	203
158	204
158	205
158	206
158	207
158	208
158	209
158	210
158	211
158	212
158	213
158	214
158	215
158	216
158	217
158	218
158	225
158	226
158	227
158	228
158	229
158	230
158	231
158	232
158	235
158	236
158	237
158	238
158	239
158	240
158	242
158	243
158	246
158	248
158	249
158	250
158	252
158	261
158	262
158	263
158	264
158	265
158	266
158	267
158	270
158	286
158	287
158	289
158	290
158	293
158	316
158	318
158	321
158	324
158	325
158	330
158	335
158	338
158	339
158	341
158	343
158	344
158	354
158	357
158	362
158	363
158	369
158	370
158	374
158	375
158	378
158	389
158	393
158	394
158	395
158	396
158	397
158	407
158	408
158	409
158	410
158	411
158	412
158	414
158	416
158	417
158	425
159	160
159	165
159	166
159	167
159	168
159	169
159	170
159	171
159	172
159	173
159	176
159	177
159	178
159	179
159	180
159	181
159	182
159	188
159	191
159	194
159	196
159	197
159	198
159	199
159	200
159	201
159	202
159	204
159	205
159	206
159	209
159	210
159	214
159	215
159	217
159	218
159	219
159	222
159	224
159	225
159	228
159	232
159	234
159	236
159	237
159	238
159	239
159	240
159	242
159	245
159	248
159	251
159	257
159	271
159	290
159	335
159	361
159	373
159	376
159	387
159	395
159	399
159	402
159	419
159	458
159	489
160	164
160	165
160	166
160	167
160	168
160	169
160	170
160	171
160	172
160	173
160	176
160	177
160	178
160	179
160	180
160	182
160	183
160	188
160	189
160	190
160	191
160	192
160	193
160	196
160	197
160	200
160	201
160	205
160	206
160	207
160	208
160	209
160	210
160	212
160	213
160	214
160	216
160	222
160	226
160	227
160	228
160	229
160	230
160	232
160	236
160	237
160	238
160	239
160	240
160	246
160	248
160	251
160	252
160	256
160	257
160	259
160	261
160	262
160	264
160	265
160	276
160	286
160	287
160	289
160	290
160	293
160	294
160	309
160	310
160	316
160	317
160	318
160	321
160	322
160	324
160	325
160	334
160	335
160	336
160	337
160	339
160	341
160	354
160	362
160	363
160	369
160	370
160	374
160	393
160	396
160	407
160	408
160	418
161	162
161	172
161	174
161	186
161	195
161	219
161	220
161	221
161	223
161	244
161	247
161	254
161	274
161	275
161	297
161	299
161	300
161	301
161	304
161	307
161	311
161	312
161	313
161	314
161	315
161	328
161	331
161	332
161	347
161	349
161	350
161	351
161	352
161	355
161	359
161	360
161	361
161	366
161	367
161	381
161	382
161	391
161	406
161	427
161	428
161	429
161	431
161	434
161	435
161	438
161	439
161	440
161	447
161	449
161	504
161	505
161	506
161	514
161	526
161	533
161	534
161	536
161	538
161	539
161	540
161	541
161	542
161	543
161	544
161	545
161	547
161	548
161	549
161	550
161	552
161	553
161	554
161	555
161	556
161	557
161	558
161	560
161	562
161	577
161	578
161	579
161	585
161	586
161	587
161	588
161	589
161	590
161	591
161	592
161	594
161	595
161	596
161	598
161	599
162	174
162	182
162	188
162	189
162	193
162	196
162	203
162	208
162	217
162	218
162	219
162	220
162	221
162	223
162	224
162	233
162	234
162	244
162	247
162	248
162	254
162	268
162	269
162	270
162	271
162	273
162	274
162	276
162	288
162	295
162	298
162	299
162	300
162	301
162	304
162	305
162	311
162	312
162	315
162	326
162	328
162	331
162	332
162	342
162	349
162	350
162	351
162	352
162	353
162	354
162	355
162	359
162	380
162	383
162	384
162	391
162	428
162	429
162	431
162	432
162	434
162	435
162	443
162	448
162	449
162	504
162	506
162	514
162	515
162	524
162	526
162	534
162	536
162	538
162	539
162	540
162	541
162	542
162	543
162	545
162	548
162	549
162	550
162	552
162	553
162	554
162	555
162	556
162	558
162	576
162	578
162	585
162	586
162	587
162	591
162	593
162	597
162	608
163	164
163	168
163	175
163	187
163	191
163	255
163	256
163	258
163	277
163	278
163	279
163	280
163	282
163	283
163	308
163	373
163	386
163	387
163	388
163	392
163	402
163	403
163	405
163	413
163	415
163	419
163	444
163	446
163	459
163	460
163	461
163	462
163	463
163	464
163	465
163	466
163	468
163	469
163	470
163	471
163	473
163	475
163	476
163	477
163	478
163	479
163	480
163	481
163	482
163	483
163	485
163	486
163	487
163	488
163	491
163	492
163	496
163	497
163	498
163	507
163	509
163	516
163	517
163	518
163	523
163	613
163	614
163	624
163	626
163	627
163	628
163	629
163	630
163	631
163	632
163	633
163	634
163	635
163	636
163	637
163	638
163	639
163	640
163	641
163	645
163	647
163	648
163	649
163	650
163	651
163	652
163	653
163	659
163	663
163	665
163	666
163	668
163	669
163	672
163	673
163	674
163	678
163	679
163	680
163	682
163	683
163	684
163	685
163	686
163	687
163	691
163	692
163	694
163	696
163	699
163	700
163	701
163	703
163	711
163	714
163	715
163	751
163	760
163	877
164	168
164	169
164	175
164	187
164	255
164	256
164	258
164	259
164	277
164	279
164	280
164	281
164	282
164	283
164	308
164	373
164	386
164	387
164	388
164	392
164	402
164	403
164	413
164	415
164	419
164	444
164	446
164	453
164	459
164	460
164	461
164	462
164	463
164	464
164	465
164	466
164	467
164	468
164	469
164	470
164	471
164	472
164	473
164	475
164	476
164	477
164	479
164	481
164	482
164	483
164	485
164	486
164	487
164	488
164	491
164	495
164	497
164	498
164	507
164	509
164	510
164	516
164	517
164	523
164	613
164	622
164	626
164	627
164	628
164	629
164	630
164	631
164	632
164	633
164	634
164	635
164	636
164	637
164	638
164	639
164	640
164	641
164	644
164	645
164	646
164	647
164	648
164	649
164	650
164	651
164	652
164	653
164	654
164	655
164	656
164	663
164	665
164	666
164	667
164	668
164	669
164	671
164	672
164	673
164	674
164	678
164	679
164	680
164	682
164	683
164	684
164	685
164	686
164	687
164	688
164	690
164	691
164	692
164	693
164	694
164	697
164	699
164	700
164	701
164	711
164	714
164	715
164	739
164	762
164	829
165	166
165	167
165	176
165	177
165	178
165	179
165	182
165	183
165	190
165	191
165	196
165	197
165	199
165	200
165	201
165	210
165	215
165	217
165	225
165	226
165	235
165	236
165	237
165	238
165	239
165	240
165	242
165	249
165	251
165	265
165	289
165	290
165	362
165	369
165	375
165	393
165	411
166	167
166	176
166	177
166	178
166	179
166	180
166	181
166	182
166	183
166	185
166	188
166	190
166	191
166	196
166	197
166	200
166	201
166	204
166	205
166	206
166	207
166	209
166	210
166	215
166	217
166	218
166	225
166	226
166	227
166	228
166	229
166	232
166	235
166	236
166	237
166	238
166	239
166	240
166	242
166	247
166	249
166	251
166	252
166	260
166	265
166	287
166	289
166	290
166	293
166	316
166	317
166	321
166	325
166	333
166	334
166	335
166	341
166	362
166	369
166	393
166	394
166	395
166	396
166	397
166	398
166	407
166	408
166	409
166	410
166	411
167	168
167	169
167	170
167	171
167	172
167	173
167	176
167	177
167	178
167	179
167	180
167	181
167	182
167	183
167	188
167	189
167	191
167	192
167	193
167	194
167	195
167	196
167	197
167	200
167	201
167	203
167	204
167	205
167	206
167	207
167	208
167	209
167	210
167	211
167	212
167	213
167	214
167	215
167	217
167	218
167	222
167	224
167	225
167	226
167	228
167	229
167	230
167	231
167	232
167	234
167	235
167	236
167	238
167	239
167	240
167	246
167	248
167	257
167	261
167	262
167	264
167	265
167	271
167	274
167	276
167	286
167	287
167	290
167	309
167	311
167	316
167	318
167	321
167	322
167	324
167	325
167	335
167	336
167	341
167	353
167	354
167	355
167	357
167	358
167	362
167	363
167	369
167	370
167	374
167	393
167	396
167	399
167	418
167	425
168	169
168	170
168	171
168	172
168	173
168	177
168	178
168	180
168	182
168	188
168	189
168	191
168	192
168	193
168	194
168	197
168	208
168	209
168	210
168	212
168	213
168	214
168	222
168	228
168	229
168	230
168	231
168	240
168	246
168	248
168	256
168	257
168	259
168	261
168	262
168	264
168	271
168	274
168	276
168	300
168	322
168	324
168	325
168	335
168	338
168	353
168	363
168	369
168	370
168	374
168	387
168	393
168	399
168	419
168	446
168	463
168	465
169	170
169	171
169	172
169	173
169	177
169	178
169	180
169	181
169	188
169	189
169	191
169	192
169	193
169	194
169	195
169	196
169	197
169	198
169	203
169	204
169	205
169	208
169	209
169	210
169	211
169	212
169	213
169	214
169	215
169	217
169	218
169	219
169	222
169	230
169	231
169	232
169	235
169	242
169	248
169	250
169	255
169	256
169	257
169	262
169	263
169	264
169	265
169	266
169	267
169	270
169	271
169	274
169	276
169	287
169	295
169	297
169	298
169	299
169	300
169	311
169	318
169	323
169	324
169	325
169	328
169	332
169	339
169	341
169	342
169	343
169	344
169	353
169	354
169	355
169	358
169	363
169	364
169	365
169	368
169	375
169	376
169	378
169	384
169	393
169	394
169	399
169	412
169	446
169	463
169	464
169	465
169	482
169	483
169	494
170	171
170	172
170	173
170	175
170	176
170	178
170	181
170	184
170	187
170	191
170	192
170	193
170	194
170	195
170	196
170	197
170	203
170	204
170	209
170	210
170	211
170	212
170	213
170	214
170	215
170	216
170	217
170	218
170	219
170	221
170	222
170	223
170	224
170	228
170	231
170	232
170	234
170	235
170	241
170	242
170	243
170	244
170	247
170	248
170	253
170	254
170	255
170	256
170	257
170	259
170	266
170	267
170	270
170	271
170	273
170	274
170	276
170	288
170	300
170	301
170	305
170	306
170	311
170	318
170	325
170	329
170	332
170	341
170	344
170	345
170	347
170	353
170	354
170	355
170	358
170	359
170	361
170	365
170	367
170	368
170	376
170	387
170	388
170	395
170	398
170	399
170	400
170	403
170	404
170	412
170	415
170	465
170	482
170	483
170	486
170	487
170	488
170	489
170	496
170	499
170	500
170	501
170	503
170	505
170	506
170	507
170	508
170	509
170	510
170	511
170	512
170	513
171	172
171	173
171	175
171	178
171	184
171	185
171	191
171	192
171	195
171	196
171	197
171	204
171	211
171	212
171	213
171	214
171	216
171	217
171	218
171	219
171	220
171	221
171	222
171	223
171	224
171	231
171	232
171	233
171	234
171	235
171	242
171	243
171	247
171	248
171	254
171	255
171	256
171	257
171	264
171	266
171	268
171	269
171	270
171	271
171	272
171	273
171	274
171	276
171	280
171	285
171	286
171	288
171	299
171	300
171	301
171	302
171	304
171	305
171	311
171	312
171	313
171	314
171	315
171	328
171	330
171	331
171	332
171	341
171	346
171	349
171	352
171	353
171	361
171	364
171	367
171	368
171	376
171	380
171	383
171	384
171	395
171	399
171	400
171	403
171	415
171	422
171	427
171	429
171	431
171	435
171	446
171	447
171	463
171	465
171	466
171	477
171	486
171	487
171	488
171	489
171	498
171	503
171	504
171	506
171	514
171	515
171	516
171	517
171	518
171	519
172	173
172	178
172	184
172	189
172	191
172	192
172	195
172	196
172	197
172	203
172	211
172	213
172	214
172	217
172	218
172	219
172	220
172	221
172	222
172	223
172	224
172	231
172	232
172	233
172	234
172	235
172	242
172	243
172	244
172	247
172	248
172	253
172	256
172	257
172	259
172	262
172	264
172	266
172	267
172	268
172	269
172	270
172	271
172	273
172	274
172	276
172	286
172	288
172	291
172	297
172	298
172	299
172	300
172	301
172	302
172	303
172	304
172	305
172	306
172	307
172	311
172	312
172	314
172	315
172	323
172	325
172	328
172	329
172	330
172	331
172	332
172	348
172	352
172	353
172	359
172	360
172	361
172	367
172	368
172	374
172	376
172	379
172	380
172	382
172	395
172	399
172	400
172	403
172	404
172	412
172	415
172	421
172	422
172	423
172	424
172	427
172	429
172	431
172	435
172	439
172	447
172	466
172	478
172	486
172	487
172	488
172	489
172	516
172	520
172	521
172	522
172	523
173	176
173	178
173	180
173	181
173	184
173	185
173	188
173	191
173	192
173	193
173	194
173	195
173	196
173	197
173	198
173	200
173	202
173	203
173	204
173	205
173	207
173	209
173	210
173	211
173	212
173	213
173	214
173	215
173	216
173	217
173	218
173	219
173	220
173	222
173	223
173	230
173	231
173	232
173	234
173	235
173	238
173	240
173	241
173	242
173	243
173	244
173	245
173	247
173	248
173	249
173	250
173	253
173	256
173	257
173	261
173	262
173	263
173	264
173	265
173	266
173	267
173	270
173	271
173	276
173	286
173	288
173	291
173	295
173	297
173	299
173	300
173	310
173	314
173	323
173	324
173	325
173	329
173	330
173	332
173	338
173	339
173	340
173	341
173	342
173	343
173	344
173	345
173	353
173	358
173	364
173	365
173	366
173	368
173	369
173	375
173	376
173	378
173	383
173	384
173	394
173	395
173	398
173	409
173	410
173	412
173	414
173	415
173	417
173	432
174	180
174	186
174	189
174	192
174	195
174	196
174	207
174	209
174	213
174	214
174	217
174	218
174	219
174	220
174	221
174	223
174	224
174	230
174	231
174	232
174	233
174	234
174	240
174	244
174	247
174	254
174	259
174	263
174	269
174	270
174	271
174	272
174	273
174	274
174	275
174	276
174	286
174	288
174	297
174	298
174	299
174	300
174	301
174	302
174	303
174	304
174	306
174	311
174	312
174	313
174	314
174	315
174	323
174	328
174	331
174	332
174	335
174	344
174	346
174	348
174	349
174	351
174	352
174	353
174	354
174	355
174	358
174	359
174	360
174	364
174	368
174	374
174	383
174	384
174	391
174	396
174	404
174	406
174	423
174	426
174	428
174	429
174	431
174	432
174	434
174	435
174	438
174	439
174	440
174	443
174	447
174	449
174	504
174	505
174	506
174	514
174	515
174	521
174	524
174	526
174	527
174	533
174	534
174	536
174	537
174	538
174	539
174	540
174	541
174	542
174	543
174	545
174	547
174	548
174	549
174	550
174	552
174	553
174	554
174	555
174	556
174	558
174	562
174	572
174	576
174	578
174	579
174	585
174	586
174	587
174	590
174	591
174	593
174	597
174	608
175	187
175	255
175	256
175	258
175	259
175	277
175	278
175	279
175	280
175	281
175	282
175	283
175	308
175	373
175	385
175	386
175	387
175	388
175	392
175	402
175	403
175	405
175	413
175	415
175	419
175	444
175	446
175	452
175	453
175	454
175	455
175	456
175	459
175	460
175	461
175	462
175	463
175	464
175	465
175	466
175	467
175	468
175	469
175	470
175	471
175	472
175	473
175	474
175	475
175	476
175	477
175	478
175	479
175	480
175	481
175	482
175	483
175	485
175	486
175	487
175	488
175	491
175	492
175	493
175	494
175	495
175	496
175	497
175	498
175	499
175	500
175	501
175	502
175	503
175	507
175	508
175	509
175	510
175	511
175	512
175	513
175	516
175	517
175	518
175	523
175	530
175	563
175	601
175	603
175	613
175	614
175	615
175	616
175	617
175	618
175	619
175	620
175	621
175	622
175	623
175	624
175	625
175	626
175	627
175	629
175	630
175	631
175	632
175	633
175	634
175	636
175	640
175	641
175	642
175	643
175	644
175	645
175	646
175	647
175	648
175	649
175	650
175	651
175	652
175	653
175	654
175	655
175	656
175	657
175	658
175	659
175	660
175	661
175	662
175	663
175	664
175	665
175	666
175	668
175	672
175	673
175	674
175	683
175	684
175	685
175	686
175	687
175	688
175	689
175	690
175	692
175	693
175	694
175	695
175	696
175	697
175	698
175	699
175	700
175	701
175	702
175	703
175	704
175	705
175	706
175	707
175	708
175	709
175	711
175	712
175	713
175	714
175	715
175	716
175	717
175	718
175	719
175	720
175	721
175	722
175	723
175	724
175	725
175	726
175	727
175	729
175	730
175	731
175	732
175	733
175	734
175	735
175	736
175	737
175	738
175	739
175	741
175	742
175	743
175	744
175	745
175	746
175	747
175	748
175	749
175	750
175	751
175	752
175	753
175	754
175	756
175	757
175	761
175	762
175	763
175	764
175	766
175	767
175	768
175	769
175	771
175	772
175	773
175	774
175	775
175	776
175	778
175	779
175	782
175	785
175	786
175	787
175	788
175	790
175	791
175	794
175	795
175	796
175	797
175	799
175	800
175	801
175	802
175	803
175	804
175	805
175	806
175	807
175	808
175	810
175	811
175	812
175	813
175	814
175	815
175	818
175	819
175	820
175	821
175	822
175	823
175	824
175	825
175	826
175	828
175	829
175	831
175	832
175	834
175	835
175	836
175	837
175	838
175	839
175	840
175	841
175	848
175	855
175	856
175	857
175	859
175	860
175	861
175	863
175	866
175	867
175	868
175	869
175	873
175	878
175	879
175	883
175	884
175	885
175	886
175	887
175	888
175	889
175	890
175	891
175	892
175	893
175	896
175	899
175	900
175	901
175	902
175	903
175	905
175	907
175	917
175	925
175	929
175	934
175	936
175	938
175	943
175	947
175	949
175	954
175	961
175	962
175	966
175	982
175	984
175	985
175	991
175	1001
176	177
176	178
176	179
176	182
176	183
176	190
176	199
176	200
176	201
176	206
176	209
176	210
176	214
176	225
176	226
176	229
176	236
176	237
176	238
176	239
176	241
176	243
176	245
176	249
176	251
176	252
176	265
176	289
176	290
176	316
176	362
176	369
176	370
176	393
176	395
176	396
176	397
176	408
176	411
177	178
177	179
177	180
177	181
177	182
177	183
177	184
177	185
177	190
177	191
177	194
177	196
177	197
177	199
177	200
177	201
177	202
177	205
177	206
177	210
177	215
177	216
177	217
177	218
177	219
177	226
177	228
177	232
177	235
177	236
177	237
177	238
177	239
177	242
177	243
177	249
177	251
177	252
177	265
177	267
177	287
177	289
177	290
177	293
177	316
177	335
177	362
177	369
177	370
177	376
177	393
177	394
177	395
177	396
177	397
177	398
177	407
177	408
177	410
178	179
178	180
178	181
178	182
178	183
178	184
178	188
178	190
178	191
178	196
178	197
178	199
178	200
178	201
178	202
178	203
178	204
178	205
178	206
178	207
178	208
178	209
178	210
178	214
178	215
178	216
178	217
178	218
178	219
178	220
178	222
178	226
178	227
178	228
178	229
178	232
178	234
178	235
178	236
178	237
178	238
178	239
178	240
178	242
178	248
178	249
178	251
178	252
178	257
178	260
178	261
178	265
178	266
178	267
178	270
178	286
178	287
178	289
178	290
178	292
178	293
178	316
178	317
178	318
178	320
178	321
178	325
178	333
178	334
178	344
178	362
178	363
178	369
178	370
178	378
178	393
178	395
178	396
178	397
178	398
178	399
178	407
178	408
178	409
178	411
179	180
179	181
179	182
179	183
179	184
179	185
179	188
179	190
179	191
179	194
179	196
179	197
179	200
179	201
179	205
179	206
179	207
179	209
179	210
179	214
179	215
179	217
179	218
179	225
179	226
179	228
179	229
179	232
179	236
179	237
179	238
179	239
179	240
179	241
179	242
179	243
179	249
179	251
179	252
179	253
179	260
179	261
179	265
179	267
179	270
179	287
179	289
179	290
179	293
179	316
179	321
179	339
179	343
179	362
179	369
179	370
179	376
179	393
179	394
179	395
179	396
179	397
179	407
179	408
179	409
179	411
179	416
180	181
180	182
180	183
180	184
180	185
180	188
180	189
180	190
180	191
180	192
180	193
180	194
180	195
180	196
180	197
180	200
180	201
180	203
180	205
180	206
180	207
180	208
180	209
180	210
180	211
180	212
180	213
180	214
180	215
180	216
180	217
180	218
180	222
180	226
180	228
180	229
180	230
180	231
180	232
180	234
180	235
180	236
180	237
180	238
180	239
180	240
180	242
180	243
180	246
180	248
180	250
180	252
180	256
180	260
180	261
180	262
180	263
180	264
180	265
180	266
180	267
180	269
180	270
180	276
180	286
180	287
180	289
180	290
180	293
180	294
180	300
180	310
180	313
180	316
180	318
180	322
180	324
180	325
180	330
180	332
180	335
180	336
180	337
180	338
180	339
180	340
180	341
180	342
180	343
180	344
180	345
180	354
180	355
180	357
180	358
180	362
180	363
180	364
180	365
180	368
180	369
180	370
180	371
180	374
180	375
180	376
180	378
180	384
180	389
180	393
180	394
180	395
180	396
180	397
180	398
180	407
180	408
180	409
180	410
180	411
180	412
180	414
180	416
180	417
180	418
180	451
181	182
181	183
181	184
181	185
181	188
181	189
181	190
181	193
181	194
181	195
181	196
181	197
181	198
181	200
181	201
181	204
181	209
181	210
181	211
181	212
181	213
181	214
181	215
181	216
181	217
181	218
181	222
181	226
181	229
181	230
181	231
181	232
181	235
181	238
181	239
181	240
181	242
181	243
181	245
181	248
181	250
181	256
181	261
181	262
181	263
181	264
181	265
181	266
181	267
181	270
181	276
181	286
181	287
181	290
181	291
181	297
181	300
181	310
181	316
181	318
181	323
181	324
181	325
181	330
181	331
181	336
181	338
181	339
181	340
181	341
181	342
181	343
181	344
181	354
181	355
181	357
181	358
181	362
181	364
181	365
181	369
181	370
181	374
181	375
181	376
181	378
181	384
181	389
181	393
181	394
181	395
181	396
181	397
181	398
181	408
181	409
181	410
181	411
181	412
181	414
181	416
181	417
181	425
182	183
182	184
182	188
182	189
182	191
182	193
182	194
182	196
182	197
182	198
182	199
182	200
182	201
182	202
182	203
182	204
182	205
182	206
182	207
182	208
182	209
182	210
182	211
182	212
182	213
182	214
182	215
182	216
182	217
182	218
182	219
182	220
182	221
182	222
182	223
182	225
182	226
182	227
182	228
182	229
182	230
182	231
182	232
182	234
182	235
182	236
182	237
182	238
182	239
182	240
182	241
182	242
182	243
182	245
182	246
182	247
182	248
182	249
182	250
182	252
182	260
182	261
182	263
182	264
182	265
182	266
182	267
182	269
182	270
182	271
182	286
182	287
182	288
182	290
182	291
182	293
182	300
182	301
182	304
182	309
182	315
182	317
182	318
182	319
182	320
182	321
182	324
182	325
182	331
182	333
182	334
182	335
182	336
182	343
182	344
182	345
182	354
182	362
182	369
182	371
182	374
182	376
182	393
182	394
182	395
182	396
182	400
182	404
182	407
182	408
182	418
183	185
183	188
183	189
183	190
183	191
183	200
183	201
183	205
183	207
183	208
183	209
183	210
183	212
183	213
183	215
183	217
183	225
183	226
183	228
183	229
183	230
183	232
183	236
183	237
183	238
183	239
183	240
183	243
183	250
183	251
183	261
183	262
183	264
183	265
183	266
183	267
183	289
183	290
183	316
183	325
183	334
183	335
183	338
183	339
183	362
183	369
183	370
183	374
183	378
183	389
183	393
183	394
183	396
183	397
183	407
183	408
183	409
183	410
183	411
183	414
183	416
183	417
183	456
184	185
184	189
184	193
184	194
184	196
184	197
184	200
184	209
184	210
184	213
184	214
184	215
184	216
184	217
184	218
184	219
184	220
184	222
184	228
184	230
184	231
184	232
184	233
184	234
184	235
184	240
184	241
184	242
184	243
184	248
184	250
184	253
184	257
184	265
184	266
184	267
184	269
184	270
184	271
184	284
184	287
184	288
184	290
184	294
184	297
184	299
184	300
184	305
184	329
184	330
184	332
184	335
184	345
184	358
184	369
184	376
184	377
184	379
184	380
184	395
184	398
184	399
184	400
184	404
184	412
184	450
185	194
185	195
185	196
185	197
185	200
185	201
185	207
185	209
185	210
185	214
185	215
185	216
185	217
185	218
185	219
185	222
185	231
185	232
185	233
185	234
185	235
185	237
185	238
185	240
185	241
185	242
185	243
185	247
185	248
185	250
185	253
185	257
185	265
185	266
185	267
185	270
185	290
185	299
185	323
185	329
185	330
185	339
185	343
185	344
185	353
185	369
185	375
185	376
185	378
185	393
185	394
185	395
185	397
185	398
185	399
185	408
185	409
185	410
185	412
186	193
186	195
186	196
186	211
186	213
186	217
186	218
186	219
186	220
186	221
186	222
186	223
186	224
186	230
186	231
186	233
186	234
186	244
186	247
186	254
186	262
186	268
186	269
186	270
186	271
186	272
186	273
186	274
186	275
186	276
186	286
186	288
186	291
186	295
186	296
186	297
186	298
186	299
186	300
186	301
186	302
186	303
186	304
186	305
186	306
186	307
186	311
186	312
186	313
186	314
186	315
186	323
186	325
186	326
186	327
186	328
186	331
186	332
186	346
186	347
186	348
186	349
186	350
186	351
186	352
186	353
186	355
186	358
186	359
186	360
186	361
186	379
186	380
186	381
186	382
186	383
186	384
186	390
186	391
186	401
186	406
186	421
186	422
186	423
186	424
186	426
186	427
186	428
186	429
186	431
186	434
186	435
186	438
186	439
186	440
186	447
186	449
186	458
186	504
186	505
186	506
186	514
186	521
186	524
186	526
186	533
186	534
186	536
186	537
186	538
186	539
186	540
186	541
186	542
186	543
186	544
186	545
186	546
186	547
186	548
186	549
186	550
186	552
186	553
186	554
186	555
186	556
186	557
186	558
186	559
186	560
186	562
186	564
186	566
186	569
186	575
186	577
186	578
186	579
186	585
186	586
186	588
186	589
186	590
186	591
186	592
186	593
186	594
186	595
186	596
186	598
186	599
187	206
187	255
187	256
187	258
187	259
187	277
187	278
187	279
187	280
187	281
187	282
187	283
187	308
187	373
187	385
187	386
187	387
187	388
187	392
187	402
187	403
187	405
187	413
187	415
187	419
187	444
187	446
187	452
187	453
187	454
187	455
187	456
187	459
187	460
187	461
187	462
187	463
187	464
187	465
187	466
187	467
187	468
187	469
187	470
187	471
187	472
187	473
187	474
187	475
187	476
187	477
187	478
187	479
187	480
187	481
187	482
187	483
187	484
187	485
187	486
187	487
187	488
187	491
187	492
187	493
187	494
187	495
187	496
187	497
187	498
187	499
187	500
187	501
187	502
187	503
187	507
187	508
187	509
187	510
187	511
187	512
187	513
187	516
187	517
187	518
187	519
187	523
187	530
187	563
187	601
187	603
187	605
187	606
187	607
187	613
187	614
187	615
187	616
187	617
187	618
187	619
187	620
187	621
187	622
187	623
187	624
187	625
187	626
187	627
187	628
187	629
187	630
187	631
187	632
187	633
187	634
187	635
187	636
187	637
187	638
187	639
187	640
187	641
187	642
187	643
187	644
187	645
187	646
187	647
187	648
187	649
187	650
187	651
187	652
187	653
187	654
187	655
187	656
187	657
187	658
187	659
187	660
187	661
187	662
187	663
187	664
187	665
187	666
187	667
187	668
187	669
187	670
187	671
187	672
187	673
187	674
187	675
187	677
187	678
187	679
187	680
187	681
187	682
187	683
187	684
187	685
187	686
187	687
187	688
187	689
187	690
187	691
187	692
187	693
187	694
187	695
187	696
187	697
187	698
187	699
187	700
187	701
187	702
187	703
187	704
187	705
187	706
187	707
187	708
187	709
187	710
187	711
187	712
187	713
187	714
187	715
187	716
187	717
187	718
187	719
187	720
187	721
187	722
187	723
187	724
187	725
187	726
187	727
187	728
187	729
187	730
187	731
187	732
187	733
187	734
187	735
187	736
187	737
187	738
187	739
187	740
187	741
187	742
187	743
187	744
187	745
187	746
187	747
187	748
187	749
187	750
187	751
187	752
187	753
187	754
187	755
187	756
187	757
187	759
187	760
187	761
187	762
187	763
187	764
187	765
187	766
187	767
187	768
187	769
187	770
187	771
187	772
187	773
187	774
187	775
187	776
187	777
187	778
187	779
187	780
187	782
187	783
187	784
187	785
187	786
187	787
187	788
187	789
187	790
187	791
187	792
187	793
187	794
187	795
187	796
187	797
187	798
187	799
187	800
187	801
187	802
187	803
187	804
187	805
187	806
187	807
187	808
187	809
187	810
187	811
187	812
187	813
187	814
187	815
187	817
187	818
187	819
187	820
187	821
187	822
187	823
187	824
187	825
187	826
187	827
187	828
187	829
187	830
187	831
187	832
187	833
187	834
187	835
187	836
187	837
187	838
187	839
187	840
187	841
187	842
187	843
187	844
187	845
187	846
187	847
187	848
187	849
187	850
187	851
187	853
187	854
187	855
187	856
187	857
187	858
187	859
187	860
187	861
187	862
187	863
187	864
187	865
187	866
187	867
187	868
187	869
187	870
187	872
187	873
187	875
187	876
187	878
187	879
187	882
187	883
187	884
187	885
187	887
187	888
187	889
187	890
187	891
187	892
187	893
187	895
187	896
187	897
187	898
187	899
187	900
187	901
187	902
187	903
187	904
187	905
187	907
187	908
187	909
187	910
187	911
187	912
187	913
187	915
187	916
187	917
187	919
187	922
187	925
187	926
187	927
187	929
187	932
187	933
187	934
187	935
187	936
187	937
187	938
187	939
187	940
187	941
187	942
187	943
187	945
187	946
187	948
187	949
187	950
187	951
187	954
187	956
187	957
187	959
187	961
187	962
187	963
187	964
187	965
187	966
187	967
187	968
187	970
187	971
187	972
187	973
187	975
187	977
187	979
187	980
187	982
187	983
187	984
187	985
187	986
187	990
187	991
187	997
187	1001
187	1002
187	1008
187	1009
188	189
188	190
188	191
188	192
188	193
188	194
188	195
188	196
188	198
188	199
188	200
188	201
188	202
188	203
188	204
188	205
188	206
188	207
188	208
188	209
188	210
188	211
188	212
188	213
188	215
188	217
188	218
188	219
188	220
188	221
188	223
188	226
188	227
188	228
188	229
188	230
188	231
188	232
188	233
188	234
188	235
188	239
188	240
188	241
188	243
188	244
188	245
188	246
188	247
188	248
188	252
188	260
188	261
188	262
188	263
188	264
188	265
188	271
188	275
188	276
188	284
188	285
188	286
188	287
188	288
188	290
188	291
188	292
188	293
188	294
188	299
188	300
188	301
188	304
188	309
188	315
188	317
188	318
188	319
188	320
188	321
188	322
188	324
188	325
188	326
188	330
188	331
188	333
188	334
188	335
188	336
188	337
188	347
188	353
188	354
188	357
188	359
188	362
188	363
188	369
188	370
188	372
188	374
188	376
188	393
188	396
188	400
188	407
188	408
188	409
188	418
188	425
188	445
188	447
189	190
189	192
189	193
189	194
189	195
189	196
189	197
189	198
189	200
189	202
189	203
189	204
189	205
189	206
189	207
189	208
189	209
189	210
189	211
189	212
189	213
189	214
189	215
189	217
189	218
189	219
189	222
189	223
189	227
189	228
189	229
189	230
189	231
189	232
189	234
189	235
189	236
189	239
189	240
189	241
189	246
189	248
189	251
189	252
189	256
189	261
189	262
189	263
189	264
189	269
189	271
189	276
189	286
189	287
189	288
189	291
189	293
189	297
189	299
189	309
189	317
189	318
189	321
189	322
189	324
189	325
189	333
189	335
189	336
189	338
189	339
189	340
189	341
189	342
189	343
189	344
189	345
189	353
189	354
189	355
189	357
189	358
189	363
189	364
189	365
189	369
189	370
189	374
189	389
189	393
189	396
189	408
189	412
189	420
189	425
190	200
190	201
190	205
190	206
190	207
190	209
190	210
190	212
190	215
190	226
190	228
190	229
190	230
190	236
190	237
190	238
190	239
190	240
190	250
190	262
190	263
190	265
190	289
190	290
190	293
190	316
190	322
190	335
190	338
190	339
190	344
190	362
190	369
190	370
190	378
190	393
190	394
190	396
190	397
190	407
190	408
190	409
190	410
190	411
190	416
190	417
191	192
191	196
191	197
191	200
191	201
191	202
191	203
191	204
191	205
191	206
191	207
191	210
191	222
191	224
191	226
191	227
191	228
191	230
191	237
191	238
191	239
191	248
191	252
191	256
191	257
191	260
191	261
191	262
191	264
191	271
191	286
191	287
191	289
191	290
191	293
191	309
191	316
191	317
191	318
191	320
191	321
191	322
191	324
191	325
191	334
191	354
191	361
191	362
191	369
191	396
191	397
191	407
192	193
192	194
192	195
192	196
192	197
192	198
192	200
192	201
192	203
192	204
192	205
192	206
192	207
192	208
192	209
192	210
192	211
192	212
192	213
192	214
192	217
192	218
192	219
192	220
192	221
192	222
192	223
192	224
192	228
192	229
192	230
192	231
192	233
192	234
192	239
192	240
192	244
192	245
192	246
192	247
192	248
192	252
192	256
192	257
192	260
192	261
192	262
192	263
192	264
192	269
192	270
192	271
192	273
192	274
192	276
192	284
192	285
192	286
192	287
192	288
192	290
192	291
192	292
192	293
192	296
192	297
192	299
192	300
192	301
192	302
192	304
192	307
192	309
192	310
192	311
192	312
192	314
192	315
192	317
192	318
192	319
192	320
192	321
192	322
192	323
192	324
192	325
192	332
192	334
192	335
192	336
192	337
192	341
192	342
192	347
192	351
192	352
192	354
192	355
192	356
192	358
192	359
192	360
192	363
192	364
192	365
192	366
192	368
192	369
192	370
192	374
192	382
192	384
192	393
192	418
192	420
192	428
192	525
192	526
193	194
193	195
193	196
193	197
193	198
193	200
193	202
193	203
193	204
193	205
193	206
193	207
193	208
193	209
193	210
193	211
193	212
193	213
193	214
193	215
193	217
193	218
193	219
193	227
193	228
193	229
193	230
193	231
193	232
193	234
193	235
193	239
193	240
193	243
193	245
193	246
193	247
193	248
193	256
193	260
193	261
193	262
193	263
193	264
193	265
193	267
193	276
193	286
193	287
193	291
193	293
193	297
193	299
193	300
193	305
193	310
193	312
193	315
193	322
193	324
193	325
193	330
193	333
193	335
193	336
193	337
193	338
193	339
193	340
193	341
193	343
193	344
193	347
193	354
193	355
193	357
193	358
193	363
193	364
193	365
193	369
193	370
193	371
193	372
193	374
193	376
193	384
193	389
193	393
193	394
193	395
193	396
193	398
193	400
193	409
193	420
193	425
194	195
194	196
194	197
194	198
194	200
194	201
194	203
194	205
194	206
194	207
194	208
194	209
194	210
194	211
194	212
194	213
194	214
194	215
194	216
194	217
194	218
194	219
194	220
194	222
194	223
194	224
194	226
194	227
194	228
194	229
194	230
194	231
194	232
194	234
194	235
194	236
194	237
194	239
194	240
194	242
194	243
194	248
194	254
194	261
194	262
194	263
194	264
194	265
194	266
194	267
194	270
194	271
194	276
194	286
194	288
194	290
194	297
194	300
194	310
194	317
194	323
194	324
194	325
194	330
194	331
194	332
194	335
194	338
194	339
194	340
194	341
194	342
194	343
194	344
194	345
194	353
194	354
194	357
194	358
194	364
194	365
194	368
194	369
194	371
194	374
194	375
194	378
194	384
194	389
194	393
194	394
194	395
194	397
194	409
194	410
194	412
194	414
194	416
194	420
194	425
194	428
195	196
195	197
195	198
195	203
195	204
195	207
195	209
195	210
195	211
195	212
195	213
195	214
195	215
195	216
195	217
195	218
195	219
195	220
195	221
195	222
195	223
195	224
195	230
195	231
195	232
195	233
195	234
195	235
195	240
195	244
195	245
195	247
195	248
195	250
195	252
195	254
195	256
195	257
195	260
195	261
195	262
195	263
195	264
195	265
195	266
195	267
195	270
195	271
195	272
195	274
195	276
195	286
195	287
195	288
195	291
195	292
195	293
195	295
195	296
195	297
195	298
195	299
195	300
195	301
195	304
195	305
195	310
195	311
195	312
195	313
195	314
195	315
195	318
195	319
195	323
195	324
195	325
195	326
195	327
195	328
195	329
195	330
195	331
195	332
195	335
195	336
195	340
195	341
195	342
195	343
195	344
195	345
195	346
195	347
195	349
195	351
195	352
195	353
195	355
195	357
195	358
195	359
195	360
195	361
195	364
195	365
195	366
195	368
195	375
195	376
195	383
195	384
195	391
195	395
195	396
195	400
195	406
195	415
195	428
195	429
195	431
195	432
195	434
195	435
195	438
195	440
195	443
195	447
195	448
195	465
195	489
195	504
195	505
195	506
195	514
195	515
195	521
195	522
195	524
195	526
195	534
195	536
195	539
195	541
195	542
195	543
195	545
195	546
195	547
195	548
195	549
195	550
195	551
195	552
196	197
196	198
196	200
196	201
196	202
196	203
196	204
196	205
196	206
196	207
196	208
196	209
196	210
196	211
196	212
196	213
196	214
196	215
196	216
196	217
196	218
196	219
196	220
196	221
196	222
196	223
196	224
196	227
196	228
196	230
196	231
196	232
196	233
196	234
196	235
196	236
196	237
196	238
196	239
196	240
196	241
196	242
196	243
196	244
196	245
196	247
196	248
196	250
196	252
196	253
196	254
196	257
196	260
196	261
196	262
196	263
196	264
196	265
196	266
196	267
196	268
196	269
196	270
196	271
196	272
196	273
196	274
196	275
196	276
196	284
196	285
196	286
196	287
196	288
196	291
196	292
196	293
196	294
196	295
196	296
196	297
196	298
196	299
196	300
196	301
196	302
196	303
196	304
196	305
196	307
196	310
196	311
196	312
196	313
196	314
196	315
196	318
196	319
196	320
196	321
196	323
196	324
196	325
196	326
196	327
196	328
196	329
196	330
196	331
196	332
196	335
196	336
196	339
196	340
196	341
196	342
196	343
196	344
196	345
196	346
196	347
196	348
196	350
196	351
196	352
196	353
196	354
196	355
196	357
196	358
196	359
196	360
196	361
196	364
196	365
196	366
196	367
196	368
196	369
196	374
196	375
196	376
196	377
196	378
196	379
196	380
196	381
196	382
196	383
196	384
196	391
196	393
196	395
196	398
196	399
196	400
196	401
196	404
196	412
196	421
196	423
196	427
196	428
196	429
196	432
196	435
196	440
196	448
196	458
196	486
196	504
196	506
196	510
196	515
196	524
196	526
196	533
196	536
196	539
196	544
196	551
196	555
197	198
197	200
197	203
197	204
197	205
197	207
197	209
197	210
197	211
197	212
197	213
197	214
197	215
197	216
197	217
197	218
197	219
197	220
197	221
197	222
197	223
197	224
197	228
197	230
197	231
197	232
197	233
197	234
197	235
197	240
197	241
197	242
197	243
197	244
197	245
197	247
197	248
197	249
197	250
197	253
197	254
197	256
197	257
197	260
197	263
197	264
197	265
197	266
197	267
197	269
197	270
197	271
197	276
197	284
197	286
197	287
197	294
197	296
197	297
197	298
197	299
197	300
197	302
197	303
197	305
197	310
197	311
197	312
197	314
197	318
197	323
197	324
197	325
197	327
197	329
197	330
197	332
197	341
197	342
197	343
197	344
197	345
197	347
197	353
197	354
197	357
197	358
197	364
197	365
197	366
197	368
197	374
197	375
197	376
197	378
197	383
197	384
197	393
197	394
197	395
197	396
197	397
197	398
197	399
197	400
197	410
197	412
197	428
197	432
197	448
197	501
197	504
197	524
197	601
198	199
198	201
198	203
198	204
198	205
198	206
198	207
198	208
198	210
198	211
198	212
198	213
198	215
198	217
198	218
198	219
198	220
198	221
198	222
198	223
198	224
198	228
198	230
198	231
198	232
198	233
198	234
198	244
198	245
198	247
198	248
198	260
198	261
198	262
198	264
198	268
198	269
198	270
198	271
198	274
198	275
198	276
198	284
198	285
198	286
198	287
198	288
198	291
198	292
198	293
198	299
198	300
198	301
198	302
198	304
198	306
198	311
198	317
198	318
198	319
198	320
198	321
198	322
198	323
198	324
198	325
198	326
198	327
198	328
198	329
198	330
198	331
198	332
199	202
199	203
199	207
199	219
199	333
200	201
200	202
200	203
200	204
200	205
200	206
200	207
200	208
200	209
200	210
200	212
200	213
200	214
200	215
200	216
200	217
200	218
200	219
200	225
200	226
200	227
200	228
200	229
200	230
200	232
200	234
200	235
200	236
200	237
200	238
200	239
200	240
200	241
200	242
200	243
200	246
200	248
200	250
200	252
200	253
200	260
200	261
200	262
200	264
200	265
200	266
200	267
200	270
200	286
200	287
200	289
200	290
200	291
200	292
200	293
200	316
200	317
200	318
200	319
200	320
200	321
200	322
200	324
200	325
200	329
200	330
200	333
200	334
200	335
200	337
200	339
200	343
200	344
200	354
200	362
200	363
200	369
200	370
200	371
200	375
200	376
200	378
200	393
200	394
200	395
200	396
200	397
200	404
200	407
200	408
200	409
200	410
200	411
200	412
200	416
200	417
201	205
201	206
201	207
201	209
201	210
201	215
201	217
201	218
201	225
201	226
201	228
201	229
201	230
201	232
201	236
201	237
201	238
201	239
201	240
201	241
201	249
201	250
201	251
201	252
201	261
201	262
201	264
201	265
201	266
201	267
201	286
201	287
201	289
201	290
201	293
201	309
201	316
201	317
201	318
201	320
201	321
201	322
201	325
201	333
201	334
201	337
201	344
201	362
201	369
201	370
201	393
201	395
201	396
201	397
201	407
201	408
201	409
201	410
201	411
201	412
202	203
202	204
202	205
202	206
202	207
202	208
202	209
202	210
202	212
202	216
202	217
202	218
202	219
202	227
202	228
202	230
202	231
202	234
202	235
202	236
202	238
202	239
202	240
202	251
202	252
202	260
202	264
202	293
202	309
202	333
203	204
203	205
203	206
203	207
203	208
203	209
203	210
203	211
203	212
203	213
203	217
203	218
203	219
203	220
203	221
203	222
203	223
203	224
203	227
203	228
203	230
203	231
203	233
203	234
203	235
203	239
203	240
203	244
203	245
203	247
203	248
203	252
203	256
203	257
203	260
203	261
203	262
203	263
203	264
203	268
203	269
203	270
203	271
203	273
203	274
203	275
203	276
203	284
203	285
203	286
203	287
203	288
203	291
203	292
203	293
203	295
203	296
203	297
203	298
203	299
203	300
203	301
203	302
203	304
203	305
203	307
203	309
203	310
203	311
203	312
203	313
203	315
203	317
203	318
203	319
203	320
203	321
203	322
203	323
203	324
203	325
203	328
203	332
203	333
203	334
203	336
203	337
203	339
203	340
203	341
203	347
203	348
203	351
203	352
203	353
203	355
203	356
203	357
203	358
203	359
203	362
203	363
203	364
203	365
203	366
203	367
203	368
203	370
203	374
203	376
203	380
203	383
203	384
203	390
203	393
203	410
203	425
203	426
203	427
203	428
204	205
204	206
204	207
204	209
204	211
204	212
204	213
204	216
204	217
204	218
204	219
204	220
204	221
204	223
204	224
204	228
204	230
204	231
204	232
204	233
204	234
204	235
204	239
204	241
204	244
204	245
204	247
204	248
204	252
204	257
204	260
204	261
204	262
204	264
204	268
204	269
204	270
204	271
204	272
204	273
204	274
204	275
204	276
204	284
204	285
204	286
204	287
204	288
204	291
204	292
204	293
204	295
204	296
204	297
204	298
204	299
204	300
204	301
204	302
204	304
204	305
204	309
204	311
204	312
204	314
204	315
204	317
204	318
204	319
204	320
204	321
204	322
204	324
204	325
204	328
204	331
204	332
204	334
204	336
204	337
204	341
204	345
204	347
204	351
204	352
204	356
204	357
204	358
204	361
204	363
204	365
204	366
204	368
204	384
204	390
204	418
204	422
204	429
204	433
204	434
204	435
205	206
205	207
205	208
205	209
205	211
205	212
205	213
205	214
205	215
205	217
205	218
205	219
205	221
205	223
205	224
205	226
205	227
205	228
205	229
205	230
205	231
205	232
205	233
205	235
205	239
205	240
205	242
205	244
205	245
205	246
205	247
205	248
205	250
205	252
205	260
205	261
205	262
205	263
205	264
205	268
205	269
205	270
205	271
205	272
205	284
205	285
205	286
205	287
205	288
205	290
205	291
205	292
205	293
205	299
205	304
205	305
205	309
205	311
205	317
205	318
205	319
205	320
205	321
205	322
205	324
205	325
205	330
205	331
205	333
205	334
205	335
205	336
205	339
205	341
205	354
205	359
205	362
205	363
205	369
205	370
205	371
205	372
205	374
205	376
205	379
205	393
205	394
205	395
205	396
205	407
205	418
205	425
205	445
206	207
206	208
206	209
206	211
206	212
206	213
206	214
206	217
206	218
206	219
206	220
206	221
206	223
206	226
206	227
206	228
206	229
206	230
206	231
206	233
206	234
206	235
206	239
206	240
206	244
206	246
206	247
206	248
206	252
206	260
206	261
206	262
206	263
206	264
206	266
206	270
206	271
206	273
206	274
206	286
206	287
206	288
206	290
206	292
206	293
206	301
206	304
206	309
206	311
206	317
206	318
206	319
206	320
206	321
206	322
206	328
206	329
206	333
206	334
206	335
206	358
206	362
206	363
206	369
206	372
206	374
206	380
206	384
206	393
206	407
206	418
207	208
207	209
207	210
207	211
207	212
207	213
207	214
207	215
207	217
207	218
207	219
207	221
207	222
207	223
207	226
207	227
207	228
207	229
207	230
207	231
207	232
207	233
207	234
207	235
207	239
207	240
207	243
207	244
207	246
207	247
207	248
207	252
207	260
207	261
207	262
207	263
207	264
207	265
207	269
207	270
207	271
207	276
207	284
207	285
207	286
207	287
207	288
207	290
207	291
207	292
207	293
207	309
207	311
207	315
207	317
207	318
207	319
207	320
207	321
207	322
207	324
207	325
207	328
207	329
207	333
207	334
207	335
207	336
207	337
207	339
207	354
207	355
207	357
207	359
207	362
207	363
207	365
207	369
207	371
207	372
207	374
207	376
207	378
207	389
207	393
207	395
207	396
207	407
207	418
207	420
207	425
208	209
208	210
208	212
208	213
208	214
208	215
208	217
208	218
208	226
208	227
208	228
208	229
208	230
208	235
208	239
208	240
208	241
208	242
208	243
208	246
208	248
208	252
208	261
208	262
208	263
208	264
208	266
208	276
208	286
208	287
208	290
208	292
208	293
208	298
208	309
208	318
208	319
208	320
208	321
208	322
208	324
208	325
208	330
208	333
208	334
208	335
208	336
208	337
208	338
208	345
208	354
208	358
208	363
208	369
208	370
208	371
208	372
208	374
208	389
208	393
208	394
208	396
208	408
208	418
208	420
208	425
209	210
209	211
209	212
209	213
209	214
209	215
209	216
209	217
209	218
209	219
209	222
209	226
209	227
209	228
209	229
209	230
209	231
209	232
209	233
209	234
209	235
209	236
209	238
209	239
209	240
209	241
209	242
209	243
209	245
209	246
209	247
209	248
209	250
209	253
209	255
209	256
209	257
209	259
209	260
209	261
209	262
209	263
209	264
209	265
209	266
209	267
209	269
209	270
209	276
209	285
209	286
209	287
209	290
209	291
209	292
209	293
209	297
209	299
209	300
209	305
209	309
209	310
209	316
209	317
209	318
209	319
209	322
209	323
209	324
209	325
209	330
209	332
209	335
209	336
209	338
209	339
209	340
209	341
209	342
209	343
209	344
209	345
209	354
209	355
209	357
209	358
209	362
209	363
209	364
209	365
209	368
209	369
209	370
209	371
209	374
209	375
209	378
209	384
209	389
209	393
209	395
209	396
209	397
209	398
209	400
209	408
209	409
209	410
209	412
209	414
209	418
209	420
209	425
209	432
209	448
209	449
210	211
210	212
210	213
210	214
210	215
210	216
210	217
210	218
210	219
210	220
210	221
210	222
210	226
210	227
210	228
210	229
210	230
210	231
210	232
210	234
210	235
210	236
210	237
210	238
210	239
210	240
210	241
210	242
210	243
210	246
210	247
210	248
210	249
210	250
210	252
210	253
210	257
210	262
210	263
210	265
210	266
210	267
210	269
210	270
210	287
210	289
210	290
210	294
210	297
210	299
210	300
210	316
210	323
210	324
210	325
210	329
210	330
210	332
210	335
210	338
210	339
210	341
210	342
210	343
210	344
210	358
210	362
210	365
210	368
210	369
210	370
210	375
210	376
210	378
210	384
210	393
210	394
210	395
210	396
210	397
210	398
210	404
210	407
210	408
210	409
210	410
210	411
210	412
210	414
210	416
210	417
210	450
210	458
211	212
211	213
211	214
211	215
211	217
211	218
211	219
211	220
211	221
211	222
211	223
211	224
211	228
211	229
211	230
211	231
211	232
211	233
211	234
211	235
211	240
211	243
211	244
211	245
211	247
211	248
211	252
211	254
211	260
211	261
211	262
211	263
211	264
211	265
211	266
211	267
211	269
211	270
211	271
211	273
211	274
211	276
211	284
211	285
211	286
211	287
211	288
211	291
211	292
211	293
211	295
211	296
211	297
211	298
211	299
211	300
211	301
211	302
211	303
211	304
211	305
211	306
211	310
211	311
211	312
211	313
211	314
211	315
211	317
211	318
211	319
211	323
211	324
211	325
211	326
211	328
211	329
211	331
211	332
211	335
211	336
211	338
211	340
211	341
211	342
211	343
211	344
211	345
211	347
211	351
211	353
211	355
211	357
211	358
211	359
211	360
211	364
211	365
211	366
211	367
211	368
211	374
211	375
211	378
211	382
211	383
211	384
211	389
211	391
211	393
211	396
211	404
211	422
211	428
211	429
211	432
211	434
211	435
211	440
211	447
211	448
211	449
211	504
211	505
211	506
211	524
211	536
211	537
211	538
211	539
211	540
211	541
211	542
211	543
212	213
212	214
212	215
212	217
212	218
212	219
212	220
212	223
212	224
212	228
212	229
212	230
212	231
212	232
212	234
212	239
212	240
212	244
212	245
212	246
212	247
212	252
212	260
212	261
212	262
212	263
212	264
212	265
212	267
212	270
212	271
212	274
212	276
212	284
212	285
212	286
212	287
212	288
212	290
212	291
212	292
212	293
212	296
212	297
212	300
212	310
212	311
212	314
212	315
212	317
212	318
212	319
212	320
212	322
212	323
212	324
212	325
212	332
212	333
212	334
212	335
212	336
212	337
212	338
212	339
212	340
212	341
212	342
212	344
212	353
212	354
212	355
212	356
212	357
212	358
212	363
212	364
212	365
212	366
212	368
212	369
212	370
212	371
212	372
212	374
212	384
212	389
212	393
212	394
212	396
212	408
212	414
212	418
212	420
212	425
212	428
212	432
212	435
212	487
212	504
212	505
213	214
213	215
213	216
213	217
213	218
213	219
213	220
213	221
213	222
213	223
213	224
213	227
213	228
213	229
213	230
213	231
213	232
213	233
213	234
213	235
213	239
213	240
213	242
213	244
213	245
213	246
213	247
213	248
213	250
213	256
213	257
213	259
213	260
213	261
213	262
213	263
213	264
213	265
213	266
213	267
213	269
213	270
213	271
213	272
213	273
213	274
213	275
213	276
213	285
213	286
213	287
213	288
213	290
213	291
213	292
213	293
213	296
213	297
213	298
213	299
213	300
213	301
213	303
213	304
213	305
213	307
213	310
213	311
213	312
213	313
213	314
213	315
213	317
213	318
213	319
213	322
213	323
213	324
213	325
213	327
213	329
213	330
213	331
213	332
213	334
213	335
213	336
213	337
213	338
213	339
213	340
213	341
213	342
213	343
213	344
213	345
213	347
213	351
213	353
213	354
213	355
213	356
213	357
213	358
213	359
213	360
213	361
213	363
213	364
213	365
213	366
213	367
213	368
213	369
213	370
213	374
213	375
213	376
213	378
213	380
213	381
213	382
213	383
213	384
213	389
213	393
213	394
213	395
213	396
213	397
213	408
213	409
213	410
213	412
213	418
213	420
213	425
213	426
213	428
213	429
213	432
213	434
213	435
213	438
213	443
213	447
213	448
213	504
213	505
213	526
213	536
213	545
214	215
214	216
214	217
214	218
214	219
214	220
214	221
214	222
214	223
214	227
214	228
214	229
214	230
214	231
214	232
214	233
214	234
214	235
214	239
214	240
214	241
214	242
214	243
214	244
214	247
214	248
214	250
214	253
214	254
214	257
214	261
214	263
214	264
214	265
214	266
214	267
214	268
214	269
214	270
214	271
214	274
214	276
214	286
214	287
214	288
214	290
214	293
214	294
214	295
214	297
214	300
214	310
214	311
214	312
214	315
214	316
214	318
214	323
214	324
214	325
214	329
214	330
214	332
214	338
214	339
214	340
214	341
214	342
214	343
214	344
214	345
214	353
214	354
214	355
214	357
214	358
214	360
214	365
214	366
214	368
214	369
214	370
214	375
214	376
214	377
214	378
214	384
214	394
214	395
214	398
214	400
214	409
214	412
214	429
214	432
214	435
214	448
214	524
214	538
215	216
215	217
215	218
215	220
215	222
215	223
215	224
215	226
215	228
215	230
215	231
215	232
215	234
215	235
215	237
215	238
215	239
215	240
215	242
215	243
215	244
215	246
215	247
215	248
215	250
215	253
215	264
215	265
215	266
215	267
215	270
215	271
215	274
215	276
215	288
215	289
215	290
215	297
215	300
215	310
215	314
215	316
215	323
215	324
215	325
215	329
215	330
215	332
215	333
215	335
215	339
215	340
215	341
215	342
215	343
215	344
215	353
215	355
215	358
215	362
215	365
215	366
215	368
215	369
215	375
215	376
215	378
215	384
215	393
215	394
215	395
215	396
215	397
215	398
215	399
215	409
215	410
215	412
215	428
215	432
215	435
215	448
215	486
215	556
215	562
216	217
216	218
216	219
216	222
216	223
216	226
216	230
216	231
216	232
216	234
216	235
216	239
216	240
216	242
216	243
216	244
216	248
216	250
216	253
216	265
216	266
216	267
216	270
216	271
216	276
216	297
216	300
216	311
216	316
216	323
216	329
216	330
216	332
216	342
216	343
216	344
216	355
216	358
216	362
216	365
216	368
216	376
216	378
216	384
216	393
216	395
216	398
216	409
216	410
216	412
216	435
217	218
217	219
217	220
217	221
217	222
217	223
217	224
217	227
217	228
217	229
217	230
217	231
217	232
217	233
217	234
217	235
217	239
217	240
217	241
217	242
217	243
217	244
217	247
217	248
217	250
217	253
217	254
217	257
217	261
217	263
217	264
217	265
217	266
217	267
217	268
217	269
217	270
217	271
217	272
217	273
217	274
217	276
217	284
217	285
217	286
217	288
217	291
217	294
217	295
217	296
217	297
217	298
217	299
217	300
217	301
217	302
217	303
217	304
217	305
217	306
217	307
217	310
217	311
217	312
217	313
217	314
217	315
217	323
217	325
217	326
217	327
217	328
217	329
217	330
217	331
217	332
217	333
217	341
217	342
217	343
217	344
217	345
217	346
217	347
217	351
217	352
217	353
217	354
217	355
217	358
217	359
217	360
217	361
217	362
217	366
217	367
217	368
217	369
217	376
217	378
217	382
217	383
217	384
217	393
217	395
217	398
217	399
217	400
217	401
217	404
217	412
217	427
217	428
217	429
217	432
217	435
217	440
217	447
217	448
217	490
217	504
217	506
217	522
217	524
217	541
217	551
217	555
217	564
218	219
218	220
218	221
218	222
218	223
218	224
218	226
218	227
218	228
218	230
218	231
218	232
218	233
218	234
218	235
218	240
218	241
218	242
218	243
218	244
218	245
218	247
218	248
218	252
218	253
218	257
218	260
218	261
218	263
218	265
218	266
218	267
218	268
218	269
218	270
218	271
218	272
218	273
218	274
218	275
218	276
218	284
218	285
218	286
218	287
218	288
218	291
218	293
218	294
218	295
218	296
218	297
218	298
218	299
218	300
218	301
218	302
218	303
218	304
218	305
218	306
218	310
218	311
218	312
218	313
218	314
218	315
218	318
218	319
218	323
218	325
218	326
218	327
218	328
218	329
218	330
218	331
218	332
218	333
218	335
218	341
218	342
218	343
218	344
218	345
218	346
218	347
218	349
218	351
218	352
218	353
218	355
218	358
218	359
218	360
218	361
218	366
218	367
218	368
218	369
218	376
218	377
218	379
218	380
218	383
218	384
218	393
218	395
218	398
218	399
218	400
218	401
218	404
218	412
218	421
218	426
218	428
218	429
218	430
218	431
218	435
218	438
218	439
218	441
218	443
218	448
218	450
218	489
218	504
218	515
218	520
218	524
218	532
218	538
218	541
218	551
218	555
218	562
218	564
218	566
218	567
218	568
219	220
219	221
219	222
219	223
219	224
219	228
219	230
219	231
219	232
219	233
219	234
219	235
219	239
219	240
219	241
219	242
219	243
219	244
219	245
219	247
219	248
219	252
219	253
219	254
219	257
219	260
219	261
219	263
219	265
219	267
219	268
219	269
219	270
219	271
219	272
219	273
219	274
219	275
219	276
219	284
219	286
219	288
219	291
219	293
219	294
219	295
219	296
219	297
219	298
219	299
219	300
219	301
219	302
219	303
219	304
219	305
219	306
219	307
219	311
219	312
219	313
219	314
219	315
219	319
219	323
219	325
219	326
219	327
219	328
219	329
219	330
219	331
219	332
219	333
219	335
219	336
219	341
219	342
219	343
219	344
219	345
219	346
219	347
219	348
219	349
219	350
219	351
219	352
219	353
219	354
219	355
219	358
219	359
219	360
219	361
219	363
219	365
219	366
219	367
219	368
219	369
219	376
219	377
219	379
219	380
219	381
219	382
219	384
219	390
219	391
219	395
219	399
219	400
219	401
219	404
219	412
219	421
219	422
219	423
219	424
219	426
219	427
219	428
219	429
219	430
219	431
219	432
219	433
219	434
219	435
219	437
219	438
219	439
219	440
219	441
219	442
219	443
219	445
219	447
219	450
219	451
219	458
219	490
219	504
219	505
219	506
219	515
219	520
219	521
219	524
219	526
219	531
219	532
219	533
219	537
219	539
219	541
219	544
219	545
219	546
219	547
219	549
219	559
219	561
219	562
219	564
219	565
219	566
219	567
219	568
219	569
219	570
219	571
219	572
219	573
219	574
219	575
219	576
219	577
219	578
219	579
220	221
220	222
220	223
220	224
220	227
220	228
220	229
220	230
220	231
220	232
220	233
220	234
220	235
220	242
220	244
220	245
220	247
220	248
220	252
220	254
220	257
220	259
220	260
220	261
220	263
220	264
220	266
220	267
220	268
220	269
220	270
220	271
220	272
220	273
220	274
220	275
220	276
220	284
220	285
220	286
220	287
220	288
220	291
220	292
220	293
220	294
220	295
220	296
220	297
220	298
220	299
220	300
220	301
220	302
220	303
220	304
220	305
220	306
220	307
220	310
220	311
220	312
220	313
220	314
220	315
220	318
220	319
220	321
220	323
220	324
220	325
220	326
220	327
220	328
220	330
220	331
220	332
220	336
220	337
220	340
220	341
220	342
220	343
220	344
220	346
220	347
220	349
220	350
220	351
220	352
220	353
220	355
220	358
220	359
220	360
220	361
220	364
220	365
220	366
220	367
220	368
220	374
220	380
220	381
220	382
220	383
220	384
220	390
220	391
220	393
220	395
220	401
220	404
220	421
220	422
220	423
220	426
220	428
220	429
220	430
220	431
220	432
220	433
220	434
220	435
220	437
220	438
220	439
220	440
220	443
220	447
220	448
220	449
220	490
220	504
220	505
220	506
220	514
220	515
220	521
220	524
220	526
220	533
220	534
220	536
220	538
220	539
220	540
220	541
220	542
220	544
220	545
220	548
220	551
220	552
220	553
220	554
220	555
220	558
220	564
220	575
220	578
220	585
220	586
220	588
220	589
220	590
220	591
221	222
221	223
221	224
221	228
221	230
221	231
221	233
221	234
221	235
221	242
221	243
221	244
221	245
221	247
221	248
221	254
221	257
221	260
221	268
221	269
221	270
221	271
221	272
221	273
221	274
221	275
221	276
221	284
221	285
221	286
221	287
221	288
221	291
221	293
221	294
221	295
221	296
221	297
221	298
221	299
221	300
221	301
221	302
221	303
221	304
221	305
221	306
221	307
221	310
221	311
221	312
221	313
221	314
221	315
221	319
221	324
221	325
221	326
221	327
221	328
221	329
221	331
221	332
221	346
221	347
221	348
221	349
221	350
221	351
221	352
221	353
221	355
221	358
221	359
221	360
221	361
221	366
221	368
221	376
221	377
221	379
221	380
221	381
221	382
221	384
221	390
221	391
221	399
221	401
221	404
221	421
221	422
221	423
221	424
221	426
221	427
221	428
221	429
221	430
221	431
221	433
221	434
221	435
221	437
221	438
221	439
221	440
221	441
221	442
221	443
221	445
221	447
221	449
221	450
221	451
221	458
221	489
221	490
221	504
221	505
221	506
221	515
221	520
221	521
221	524
221	531
221	532
221	533
221	538
221	541
221	543
221	544
221	545
221	546
221	547
221	548
221	559
221	561
221	562
221	564
221	565
221	566
221	568
221	572
221	573
221	574
221	575
221	582
221	583
221	584
221	585
221	594
222	223
222	224
222	228
222	230
222	231
222	232
222	233
222	234
222	235
222	241
222	242
222	243
222	244
222	246
222	247
222	248
222	253
222	257
222	259
222	263
222	264
222	267
222	268
222	269
222	270
222	271
222	273
222	274
222	276
222	284
222	286
222	288
222	291
222	294
222	297
222	298
222	299
222	300
222	301
222	303
222	304
222	305
222	306
222	311
222	312
222	315
222	323
222	326
222	328
222	329
222	330
222	331
222	332
222	333
222	342
222	343
222	344
222	345
222	347
222	353
222	358
222	359
222	361
222	364
222	367
222	368
222	376
222	377
222	379
222	382
222	383
222	384
222	395
222	398
222	399
222	400
222	404
222	412
222	428
222	448
222	489
222	490
223	224
223	228
223	230
223	231
223	232
223	233
223	234
223	235
223	241
223	244
223	245
223	247
223	248
223	254
223	257
223	260
223	261
223	262
223	264
223	266
223	267
223	268
223	269
223	270
223	271
223	272
223	273
223	274
223	275
223	276
223	284
223	285
223	286
223	287
223	288
223	291
223	292
223	293
223	295
223	296
223	297
223	298
223	299
223	300
223	301
223	302
223	303
223	304
223	305
223	306
223	307
223	311
223	312
223	313
223	314
223	315
223	318
223	319
223	323
223	324
223	325
223	326
223	327
223	328
223	330
223	331
223	332
223	336
223	342
223	345
223	346
223	347
223	348
223	349
223	350
223	351
223	352
223	353
223	355
223	358
223	359
223	360
223	361
223	366
223	367
223	368
223	376
223	377
223	379
223	380
223	381
223	382
223	383
223	384
223	390
223	391
223	395
223	399
223	401
223	403
223	404
223	406
223	421
223	422
223	423
223	424
223	426
223	427
223	428
223	429
223	430
223	431
223	432
223	433
223	434
223	435
223	436
223	437
223	438
223	439
223	440
223	441
223	442
223	445
223	447
223	448
223	458
223	489
223	490
223	504
223	505
223	506
223	515
223	520
223	521
223	522
223	524
223	526
223	532
223	533
223	536
223	537
223	538
223	539
223	541
223	544
223	545
223	546
223	547
223	553
223	555
223	559
223	561
223	562
223	564
223	565
223	566
223	567
223	569
223	570
223	571
223	572
223	573
223	575
223	576
223	578
223	584
223	594
224	228
224	230
224	231
224	232
224	233
224	234
224	235
224	243
224	244
224	247
224	248
224	253
224	254
224	257
224	260
224	261
224	262
224	264
224	268
224	269
224	270
224	271
224	272
224	273
224	274
224	275
224	276
224	285
224	286
224	287
224	288
224	291
224	292
224	293
224	296
224	297
224	298
224	299
224	300
224	301
224	302
224	303
224	304
224	305
224	306
224	307
224	311
224	312
224	313
224	314
224	315
224	318
224	319
224	323
224	325
224	326
224	327
224	328
224	331
224	332
224	336
224	344
224	345
224	346
224	347
224	348
224	349
224	350
224	351
224	352
224	353
224	355
224	358
224	359
224	360
224	361
224	364
224	366
224	367
224	368
224	376
224	379
224	380
224	381
224	382
224	383
224	384
224	390
224	391
224	395
224	399
224	401
224	404
224	406
224	421
224	422
224	423
224	424
224	426
224	427
224	429
224	431
224	434
224	435
224	437
224	438
224	439
224	441
224	445
224	447
224	458
224	489
224	490
224	504
224	505
224	521
224	522
224	531
224	532
224	533
224	537
224	544
224	545
224	546
224	547
224	548
224	559
224	561
224	564
224	566
224	572
224	576
224	580
225	226
225	236
225	237
225	238
225	249
225	251
225	289
225	409
225	410
226	228
226	229
226	232
226	236
226	237
226	238
226	239
226	240
226	249
226	252
226	261
226	265
226	267
226	289
226	290
226	293
226	316
226	321
226	339
226	344
226	362
226	369
226	370
226	393
226	394
226	395
226	396
226	397
226	407
226	408
226	409
226	410
226	411
226	416
227	228
227	232
227	246
227	248
227	252
227	260
227	261
227	263
227	284
227	286
227	287
227	288
227	293
227	317
227	318
227	333
227	334
227	345
227	354
228	229
228	230
228	231
228	232
228	234
228	235
228	238
228	239
228	240
228	241
228	242
228	244
228	245
228	246
228	247
228	248
228	252
228	257
228	260
228	261
228	262
228	263
228	264
228	268
228	269
228	270
228	271
228	273
228	274
228	284
228	285
228	286
228	287
228	288
228	289
228	290
228	291
228	292
228	293
228	299
228	300
228	301
228	302
228	309
228	311
228	315
228	317
228	318
228	319
228	320
228	321
228	322
228	324
228	325
228	331
228	333
228	334
228	335
228	336
228	337
228	341
228	351
228	354
228	355
228	356
228	362
228	363
228	369
228	371
228	372
228	374
228	376
228	378
228	393
228	396
228	402
228	407
228	418
228	427
228	442
228	443
228	444
229	230
229	231
229	239
229	240
229	246
229	250
229	252
229	253
229	261
229	262
229	263
229	264
229	265
229	276
229	286
229	287
229	290
229	293
229	309
229	316
229	318
229	321
229	322
229	324
229	325
229	335
229	336
229	339
229	340
229	341
229	353
229	354
229	357
229	362
229	363
229	364
229	369
229	370
229	371
229	374
229	378
229	389
229	393
229	396
229	397
229	408
229	409
229	410
229	411
229	416
229	425
230	231
230	232
230	233
230	234
230	235
230	239
230	240
230	241
230	242
230	244
230	245
230	246
230	247
230	248
230	252
230	253
230	257
230	260
230	261
230	262
230	263
230	264
230	267
230	268
230	269
230	270
230	271
230	272
230	274
230	276
230	284
230	286
230	287
230	288
230	290
230	291
230	292
230	293
230	294
230	295
230	296
230	297
230	298
230	299
230	300
230	301
230	302
230	303
230	304
230	306
230	309
230	310
230	311
230	312
230	314
230	315
230	317
230	318
230	319
230	320
230	321
230	322
230	324
230	325
230	326
230	328
230	329
230	330
230	331
230	332
230	333
230	335
230	336
230	337
230	338
230	339
230	340
230	341
230	342
230	343
230	344
230	345
230	347
230	351
230	352
230	354
230	355
230	357
230	358
230	359
230	362
230	363
230	364
230	365
230	366
230	369
230	370
230	371
230	372
230	374
230	376
230	378
230	384
230	389
230	390
230	391
230	393
230	396
230	404
230	408
230	411
230	418
230	420
230	423
230	425
230	440
230	441
230	515
231	232
231	233
231	234
231	235
231	240
231	242
231	243
231	244
231	245
231	247
231	248
231	250
231	254
231	255
231	256
231	257
231	259
231	260
231	261
231	262
231	263
231	264
231	265
231	266
231	267
231	269
231	270
231	271
231	273
231	274
231	275
231	276
231	284
231	285
231	286
231	287
231	288
231	291
231	292
231	293
231	295
231	296
231	297
231	298
231	299
231	300
231	301
231	302
231	303
231	304
231	305
231	306
231	307
231	310
231	311
231	312
231	313
231	314
231	315
231	317
231	318
231	319
231	323
231	324
231	325
231	326
231	327
231	328
231	330
231	331
231	332
231	335
231	336
231	338
231	339
231	340
231	341
231	342
231	343
231	344
231	351
231	352
231	353
231	354
231	355
231	356
231	357
231	358
231	359
231	360
231	361
231	363
231	364
231	365
231	366
231	367
231	368
231	369
231	374
231	375
231	378
231	382
231	383
231	384
231	390
231	391
231	393
231	394
231	395
231	396
231	397
231	398
231	409
231	410
231	412
231	414
231	422
231	425
231	428
231	429
231	432
231	434
231	435
231	440
231	447
231	448
231	489
231	500
231	501
231	504
231	505
231	506
231	514
231	515
231	522
231	524
231	526
231	538
231	541
231	545
231	546
231	547
231	551
231	554
231	555
231	556
231	558
231	559
231	560
232	233
232	234
232	235
232	239
232	240
232	241
232	242
232	243
232	244
232	247
232	248
232	250
232	253
232	257
232	261
232	265
232	266
232	267
232	270
232	271
232	274
232	276
232	284
232	286
232	288
232	294
232	297
232	299
232	300
232	310
232	312
232	314
232	316
232	323
232	325
232	329
232	330
232	332
232	338
232	341
232	342
232	343
232	344
232	345
232	353
232	355
232	358
232	365
232	368
232	369
232	375
232	376
232	378
232	383
232	384
232	393
232	395
232	396
232	397
232	398
232	400
232	404
232	409
232	410
232	412
232	428
232	432
232	435
232	504
232	506
232	524
233	234
233	235
233	242
233	243
233	244
233	247
233	248
233	253
233	257
233	261
233	268
233	269
233	270
233	271
233	272
233	273
233	274
233	275
233	276
233	284
233	285
233	286
233	288
233	291
233	295
233	296
233	297
233	298
233	299
233	300
233	301
233	302
233	303
233	304
233	305
233	306
233	307
233	311
233	312
233	313
233	314
233	315
233	323
233	324
233	325
233	326
233	327
233	328
233	329
233	330
233	331
233	332
233	342
233	343
233	345
233	346
233	347
233	348
233	349
233	351
233	352
233	353
233	355
233	358
233	359
233	360
233	361
233	366
233	367
233	368
233	376
233	379
233	380
233	381
233	382
233	383
233	384
233	391
233	395
233	400
233	404
233	421
233	423
233	426
233	428
233	429
233	431
233	432
233	434
233	435
233	438
233	439
233	440
233	441
233	443
233	449
233	451
233	489
233	490
233	504
233	505
233	515
233	521
233	524
233	526
233	527
233	533
233	534
233	539
233	542
233	545
233	547
233	556
233	559
233	562
233	564
233	571
233	578
234	235
234	240
234	241
234	242
234	243
234	244
234	247
234	248
234	252
234	253
234	257
234	260
234	261
234	263
234	267
234	268
234	269
234	270
234	271
234	272
234	273
234	274
234	275
234	276
234	284
234	285
234	286
234	288
234	291
234	293
234	294
234	295
234	296
234	297
234	298
234	299
234	300
234	301
234	302
234	303
234	304
234	305
234	306
234	307
234	311
234	312
234	313
234	314
234	315
234	319
234	323
234	326
234	327
234	328
234	329
234	330
234	331
234	332
234	333
234	335
234	336
234	342
234	343
234	344
234	345
234	346
234	347
234	348
234	349
234	350
234	351
234	352
234	353
234	355
234	358
234	359
234	360
234	361
234	366
234	368
234	376
234	377
234	379
234	380
234	381
234	382
234	383
234	384
234	390
234	395
234	398
234	400
234	401
234	404
234	412
234	421
234	422
234	423
234	424
234	426
234	428
234	429
234	430
234	431
234	433
234	434
234	435
234	436
234	437
234	438
234	439
234	440
234	441
234	442
234	443
234	445
234	450
234	451
234	458
234	490
234	504
234	505
234	515
234	520
234	521
234	531
234	532
234	533
234	544
234	545
234	546
234	559
234	561
234	564
234	565
234	566
234	567
234	568
234	569
234	570
234	571
234	572
234	573
234	574
234	575
234	582
235	237
235	239
235	240
235	241
235	242
235	243
235	244
235	246
235	247
235	248
235	252
235	253
235	257
235	260
235	261
235	263
235	265
235	266
235	267
235	268
235	269
235	270
235	271
235	272
235	273
235	276
235	286
235	287
235	288
235	294
235	296
235	297
235	298
235	299
235	300
235	301
235	302
235	303
235	304
235	305
235	307
235	310
235	311
235	312
235	314
235	327
235	329
235	330
235	331
235	332
235	335
235	341
235	342
235	343
235	344
235	345
235	346
235	347
235	351
235	353
235	355
235	358
235	368
235	369
235	376
235	377
235	379
235	380
235	384
235	393
235	395
235	398
235	399
235	400
235	401
235	404
235	412
235	421
235	441
235	450
235	451
235	490
235	504
235	532
235	564
235	565
235	566
236	237
236	238
236	239
236	240
236	249
236	251
236	289
236	290
236	316
236	333
236	362
236	370
236	393
236	396
236	408
237	238
237	239
237	240
237	249
237	251
237	289
237	290
237	362
237	376
237	396
237	407
237	408
238	239
238	240
238	242
238	249
238	251
238	265
238	289
238	290
238	316
238	362
238	378
238	393
238	394
238	395
238	396
238	397
238	398
238	407
238	408
238	409
238	410
238	411
238	416
239	240
239	250
239	252
239	261
239	262
239	264
239	265
239	266
239	267
239	286
239	287
239	289
239	290
239	293
239	309
239	316
239	317
239	318
239	321
239	322
239	324
239	325
239	334
239	335
239	336
239	337
239	343
239	344
239	354
239	362
239	363
239	369
239	370
239	376
239	378
239	393
239	394
239	395
239	396
239	397
239	407
239	408
239	409
239	410
239	411
239	412
239	414
239	416
239	417
239	418
240	241
240	242
240	243
240	246
240	248
240	250
240	252
240	261
240	262
240	263
240	264
240	265
240	266
240	267
240	269
240	276
240	286
240	287
240	290
240	291
240	293
240	300
240	309
240	310
240	316
240	317
240	318
240	321
240	322
240	324
240	325
240	330
240	333
240	334
240	335
240	336
240	337
240	338
240	339
240	341
240	343
240	344
240	345
240	353
240	354
240	355
240	357
240	358
240	362
240	363
240	364
240	365
240	369
240	370
240	371
240	372
240	374
240	376
240	378
240	389
240	393
240	394
240	395
240	396
240	397
240	408
240	409
240	410
240	411
240	412
240	416
240	418
240	420
240	425
240	448
241	242
241	243
241	248
241	253
241	257
241	266
241	268
241	269
241	270
241	271
241	276
241	288
241	294
241	300
241	305
241	306
241	329
241	330
241	335
241	336
241	344
241	345
241	355
241	368
241	376
241	377
241	379
241	380
241	393
241	395
241	400
241	401
241	404
241	412
241	441
241	450
241	451
241	520
241	564
241	565
241	566
242	243
242	247
242	248
242	253
242	257
242	266
242	267
242	268
242	269
242	270
242	271
242	272
242	288
242	294
242	299
242	300
242	301
242	304
242	305
242	306
242	310
242	324
242	325
242	327
242	329
242	330
242	332
242	343
242	344
242	345
242	346
242	353
242	361
242	368
242	369
242	376
242	377
242	379
242	380
242	393
242	395
242	398
242	399
242	400
242	401
242	404
242	412
242	421
242	441
242	450
242	520
242	532
242	564
242	565
242	566
242	567
242	569
243	247
243	248
243	250
243	253
243	257
243	265
243	266
243	267
243	268
243	269
243	270
243	271
243	272
243	294
243	305
243	311
243	316
243	329
243	330
243	332
243	343
243	344
243	345
243	353
243	369
243	376
243	377
243	378
243	379
243	393
243	395
243	398
243	399
243	400
243	404
243	412
244	247
244	248
244	254
244	257
244	260
244	261
244	268
244	269
244	270
244	271
244	272
244	273
244	274
244	275
244	276
244	284
244	285
244	286
244	288
244	291
244	293
244	295
244	296
244	297
244	298
244	299
244	300
244	301
244	302
244	303
244	304
244	305
244	306
244	307
244	310
244	311
244	312
244	313
244	314
244	315
244	319
244	323
244	325
244	326
244	327
244	328
244	331
244	332
244	336
244	340
244	341
244	342
244	343
244	344
244	346
244	347
244	348
244	349
244	350
244	351
244	352
244	353
244	355
244	358
244	359
244	360
244	361
244	364
244	366
244	368
244	379
244	380
244	381
244	382
244	384
244	390
244	391
244	400
244	401
244	404
244	406
244	421
244	422
244	423
244	426
244	427
244	428
244	429
244	430
244	431
244	433
244	434
244	435
244	438
244	439
244	440
244	441
244	442
244	447
244	449
244	489
244	490
244	504
244	505
244	506
244	515
244	524
244	526
244	532
244	533
244	534
244	536
244	537
244	539
244	541
244	544
244	545
244	547
244	548
244	553
244	554
244	555
244	559
244	561
244	564
244	573
244	575
244	578
244	579
244	580
244	585
244	587
244	588
245	260
245	261
245	262
245	264
245	269
245	270
245	274
245	275
245	284
245	285
245	286
245	287
245	288
245	291
245	292
245	293
245	299
245	300
245	301
245	306
245	317
245	318
245	319
245	322
245	323
245	324
245	325
245	328
245	331
245	334
245	336
245	347
245	352
245	354
245	356
245	357
245	358
245	359
245	360
245	361
246	261
246	263
246	264
246	286
246	287
246	293
246	309
246	324
246	325
246	335
246	338
246	341
246	369
246	370
246	371
246	372
246	374
246	393
246	394
246	396
246	418
246	420
246	425
247	248
247	253
247	254
247	257
247	260
247	261
247	264
247	266
247	267
247	268
247	269
247	270
247	271
247	272
247	273
247	274
247	275
247	276
247	285
247	286
247	288
247	291
247	293
247	295
247	296
247	297
247	298
247	299
247	300
247	301
247	302
247	303
247	304
247	305
247	306
247	307
247	311
247	312
247	313
247	314
247	315
247	317
247	323
247	325
247	326
247	327
247	328
247	329
247	331
247	332
247	333
247	335
247	340
247	342
247	344
247	345
247	346
247	347
247	348
247	349
247	350
247	351
247	352
247	353
247	354
247	355
247	358
247	359
247	360
247	361
247	366
247	367
247	368
247	376
247	377
247	379
247	380
247	381
247	382
247	384
247	390
247	391
247	395
247	399
247	400
247	401
247	404
247	406
247	421
247	422
247	423
247	424
247	427
247	428
247	429
247	430
247	431
247	433
247	434
247	435
247	438
247	439
247	440
247	441
247	442
247	443
247	445
247	447
247	449
247	504
247	505
247	515
247	520
247	524
247	526
247	532
247	533
247	534
247	536
247	540
247	544
247	545
247	547
247	554
247	559
247	561
247	564
247	566
247	571
247	572
247	577
247	578
247	586
248	253
248	257
248	260
248	261
248	263
248	266
248	267
248	268
248	269
248	270
248	271
248	272
248	273
248	274
248	275
248	276
248	286
248	288
248	291
248	292
248	293
248	294
248	295
248	297
248	298
248	299
248	300
248	301
248	302
248	303
248	304
248	305
248	306
248	307
248	310
248	311
248	312
248	314
248	315
248	317
248	318
248	323
248	326
248	327
248	328
248	329
248	330
248	331
248	332
248	335
248	336
248	341
248	342
248	343
248	344
248	345
248	346
248	347
248	351
248	352
248	353
248	355
248	358
248	359
248	361
248	366
248	368
248	376
248	377
248	380
248	383
248	384
248	387
248	395
248	398
248	399
248	400
248	404
248	412
248	419
248	424
248	426
248	428
248	429
248	430
248	431
248	433
248	435
248	438
248	451
248	482
248	483
248	489
248	490
248	503
248	504
248	509
248	515
248	532
248	533
248	546
248	553
248	555
248	561
248	564
249	251
249	289
250	253
250	264
250	265
250	266
250	267
250	276
250	290
250	297
250	300
250	316
250	330
250	332
250	342
250	343
250	344
250	358
250	369
250	375
250	376
250	378
250	393
250	394
250	395
250	396
250	397
250	398
250	409
250	410
250	412
250	414
251	289
251	290
252	260
252	261
252	262
252	271
252	286
252	287
252	288
252	290
252	292
252	293
252	309
252	317
252	318
252	319
252	321
252	322
252	325
252	333
252	334
252	335
252	369
252	393
252	418
253	257
253	265
253	266
253	267
253	268
253	269
253	270
253	271
253	274
253	288
253	294
253	299
253	305
253	327
253	329
253	330
253	332
253	343
253	345
253	361
253	376
253	377
253	380
253	395
253	398
253	399
253	400
253	401
253	404
253	412
253	520
254	261
254	270
254	271
254	274
254	275
254	276
254	295
254	296
254	297
254	298
254	299
254	300
254	301
254	302
254	305
254	307
254	311
254	312
254	313
254	314
254	315
254	323
254	326
254	328
254	331
254	332
254	342
254	348
254	349
254	351
254	352
254	353
254	355
254	358
254	359
254	360
254	361
254	365
254	366
254	368
254	381
254	382
254	383
254	384
254	391
254	406
254	423
254	427
254	428
254	429
254	431
254	432
254	434
254	435
254	438
254	439
254	440
254	443
254	447
254	449
254	504
254	505
254	506
254	514
254	515
254	522
254	524
254	526
254	527
254	534
254	535
254	536
254	537
254	538
254	539
254	540
254	541
254	542
254	543
254	544
254	545
254	547
254	548
254	549
254	550
254	551
254	552
254	553
254	554
254	555
254	556
254	557
254	558
254	560
254	562
254	576
254	577
254	578
254	579
254	585
254	586
254	587
254	588
254	589
254	590
254	591
254	592
254	593
254	594
254	595
254	596
254	597
254	598
254	599
254	600
254	608
255	256
255	258
255	277
255	280
255	308
255	353
255	373
255	386
255	387
255	388
255	392
255	403
255	415
255	419
255	446
255	453
255	454
255	455
255	456
255	459
255	462
255	463
255	464
255	465
255	466
255	471
255	474
255	475
255	476
255	477
255	478
255	485
255	486
255	487
255	488
255	493
255	495
255	497
255	498
255	499
255	500
255	501
255	502
255	503
255	507
255	509
255	510
255	511
255	512
255	513
255	516
255	517
255	518
255	523
255	563
255	601
255	613
255	614
255	615
255	616
255	618
255	619
255	620
255	621
255	622
255	623
255	624
255	627
255	633
255	636
255	642
255	644
255	651
255	655
255	656
255	657
255	659
255	660
255	663
255	697
255	698
255	699
255	704
255	705
255	706
255	707
255	708
255	709
255	715
255	717
255	720
255	724
255	725
255	726
255	727
255	729
255	732
255	733
255	747
255	751
255	752
255	753
255	754
255	757
255	769
255	771
255	772
255	773
255	774
255	775
255	780
255	788
255	797
255	799
255	806
255	811
255	812
255	814
255	819
255	821
255	822
255	826
255	835
255	836
255	837
255	839
255	840
255	841
255	844
255	873
255	877
255	878
255	884
255	889
255	891
255	896
256	257
256	258
256	259
256	261
256	271
256	276
256	277
256	278
256	279
256	280
256	281
256	282
256	283
256	287
256	308
256	318
256	324
256	332
256	353
256	358
256	373
256	384
256	385
256	386
256	387
256	388
256	392
256	402
256	403
256	405
256	413
256	415
256	419
256	444
256	446
256	452
256	453
256	454
256	455
256	456
256	459
256	460
256	461
256	462
256	463
256	464
256	465
256	466
256	467
256	468
256	469
256	471
256	473
256	474
256	475
256	476
256	477
256	478
256	479
256	481
256	482
256	483
256	485
256	486
256	487
256	488
256	490
256	491
256	492
256	493
256	494
256	495
256	496
256	497
256	498
256	499
256	500
256	501
256	502
256	503
256	507
256	508
256	509
256	510
256	511
256	512
256	513
256	516
256	517
256	518
256	519
256	522
256	523
256	530
256	563
256	601
256	603
256	613
256	614
256	615
256	616
256	617
256	618
256	619
256	620
256	621
256	622
256	623
256	624
256	625
256	626
256	627
256	628
256	631
256	632
256	633
256	634
256	636
256	638
256	640
256	641
256	642
256	643
256	644
256	645
256	647
256	648
256	649
256	651
256	652
256	653
256	654
256	655
256	656
256	657
256	658
256	659
256	660
256	661
256	662
256	664
256	671
256	672
256	674
256	684
256	685
256	688
256	689
256	690
256	696
256	697
256	698
256	699
256	702
256	704
256	705
256	706
256	707
256	708
256	709
256	711
256	713
256	714
256	715
256	716
256	717
256	718
256	719
256	720
256	721
256	722
256	723
256	724
256	725
256	726
256	727
256	728
256	729
256	730
256	731
256	732
256	733
256	734
256	735
256	736
256	737
256	738
256	739
256	740
256	741
256	742
256	743
256	744
256	745
256	746
256	747
256	748
256	749
256	750
256	751
256	752
256	753
256	754
256	755
256	756
256	757
256	758
256	759
256	760
256	761
256	762
256	763
256	766
256	767
256	768
256	769
256	771
256	772
256	773
256	774
256	775
256	776
256	777
256	778
256	779
256	780
256	782
256	783
256	784
256	787
256	788
256	790
256	791
256	794
256	795
256	796
256	797
256	799
256	800
256	801
256	802
256	803
256	804
256	805
256	806
256	807
256	808
256	810
256	811
256	812
256	813
256	814
256	815
256	816
256	817
256	818
256	819
256	820
256	821
256	822
256	823
256	824
256	826
256	827
256	828
256	829
256	831
256	832
256	834
256	835
256	836
256	837
256	839
256	840
256	841
256	843
256	844
256	846
256	848
256	852
256	853
256	854
256	855
256	856
256	857
256	859
256	860
256	861
256	863
256	865
256	866
256	867
256	868
256	869
256	872
256	873
256	877
256	878
256	879
256	883
256	884
256	885
256	886
256	887
256	888
256	889
256	891
256	893
256	896
256	899
256	900
256	901
256	902
256	903
256	905
256	907
256	910
256	914
256	915
256	916
256	917
256	922
256	925
256	929
256	932
256	934
256	936
256	939
256	940
256	941
256	942
256	943
256	944
256	945
256	949
256	950
256	951
256	953
256	954
256	957
256	959
256	960
256	961
256	962
256	966
256	967
256	968
256	969
256	970
256	971
256	972
256	976
256	977
256	980
256	982
256	983
256	984
256	986
256	991
256	1001
256	1008
257	261
257	262
257	264
257	266
257	268
257	269
257	270
257	271
257	273
257	274
257	276
257	287
257	288
257	294
257	295
257	298
257	299
257	300
257	301
257	302
257	303
257	304
257	306
257	311
257	312
257	313
257	314
257	315
257	323
257	326
257	328
257	329
257	330
257	331
257	332
257	342
257	343
257	344
257	345
257	347
257	349
257	351
257	353
257	358
257	360
257	361
257	366
257	367
257	368
257	376
257	377
257	384
257	395
257	398
257	399
257	400
257	401
257	404
257	429
257	458
257	488
257	489
257	490
257	505
257	506
257	546
258	277
258	278
258	279
258	280
258	281
258	282
258	283
258	308
258	373
258	385
258	386
258	387
258	388
258	392
258	402
258	403
258	405
258	413
258	415
258	419
258	444
258	446
258	453
258	456
258	459
258	460
258	461
258	462
258	463
258	464
258	465
258	466
258	467
258	468
258	469
258	470
258	471
258	472
258	473
258	475
258	476
258	477
258	478
258	479
258	480
258	481
258	482
258	483
258	485
258	486
258	487
258	488
258	491
258	495
258	496
258	497
258	498
258	499
258	500
258	502
258	503
258	507
258	509
258	510
258	511
258	516
258	517
258	518
258	523
258	563
258	614
258	616
258	620
258	621
258	622
258	626
258	628
258	629
258	630
258	631
258	632
258	633
258	634
258	635
258	636
258	637
258	638
258	639
258	640
258	641
258	642
258	643
258	644
258	645
258	646
258	647
258	648
258	649
258	650
258	651
258	652
258	653
258	654
258	655
258	656
258	657
258	660
258	663
258	665
258	666
258	668
258	669
258	672
258	673
258	674
258	675
258	677
258	678
258	680
258	681
258	682
258	683
258	684
258	685
258	686
258	687
258	691
258	692
258	693
258	694
258	695
258	696
258	697
258	698
258	699
258	700
258	701
258	702
258	704
258	705
258	707
258	708
258	711
258	713
258	714
258	715
258	716
258	718
258	720
258	723
258	726
258	727
258	729
258	730
258	735
258	737
258	739
258	740
258	741
258	742
258	751
258	754
258	757
258	764
258	765
258	768
258	773
258	785
258	786
258	788
258	793
258	794
258	796
258	806
258	877
258	878
258	879
259	276
259	300
259	301
259	325
259	353
259	354
259	355
259	367
259	384
259	386
259	388
259	402
259	403
259	415
259	428
259	459
259	463
259	465
259	466
259	472
259	478
259	481
259	485
259	486
259	487
259	488
259	497
259	498
259	499
259	502
259	503
259	504
259	513
259	516
259	519
259	522
259	523
259	616
259	623
259	625
259	626
259	627
259	651
259	688
259	690
259	696
259	715
259	736
259	756
259	760
259	762
259	779
259	791
259	799
259	816
259	829
259	852
259	855
259	856
259	859
259	877
259	902
259	914
259	917
259	922
259	936
259	943
259	951
259	962
259	982
259	1002
260	261
260	262
260	264
260	269
260	270
260	271
260	274
260	276
260	284
260	285
260	286
260	287
260	288
260	291
260	292
260	293
260	295
260	296
260	297
260	299
260	300
260	301
260	305
260	309
260	312
260	317
260	318
260	319
260	320
260	321
260	322
260	324
260	325
260	328
260	334
260	336
260	337
260	341
260	356
260	363
260	366
260	418
260	429
261	262
261	263
261	264
261	270
261	276
261	284
261	285
261	286
261	287
261	288
261	290
261	291
261	292
261	293
261	296
261	309
261	311
261	312
261	317
261	318
261	319
261	322
261	324
261	325
261	326
261	332
261	334
261	335
261	336
261	337
261	340
261	341
261	342
261	344
261	355
261	357
261	362
261	363
261	364
261	365
261	366
261	368
261	369
261	370
261	371
261	374
261	389
261	393
261	396
261	418
261	420
261	428
261	435
262	263
262	264
262	265
262	276
262	285
262	286
262	287
262	290
262	291
262	292
262	297
262	300
262	309
262	315
262	317
262	318
262	319
262	320
262	321
262	322
262	324
262	325
262	332
262	335
262	336
262	337
262	338
262	339
262	340
262	341
262	342
262	343
262	353
262	354
262	356
262	357
262	358
262	362
262	363
262	364
262	369
262	370
262	371
262	372
262	374
262	389
262	393
262	394
262	396
262	418
262	420
262	425
262	529
263	264
263	270
263	271
263	276
263	286
263	287
263	297
263	309
263	310
263	318
263	322
263	323
263	324
263	325
263	330
263	331
263	335
263	336
263	338
263	339
263	340
263	341
263	345
263	354
263	357
263	358
263	363
263	364
263	365
263	369
263	370
263	371
263	372
263	374
263	376
263	389
263	393
263	396
263	397
263	408
263	412
263	418
263	420
263	425
264	267
264	270
264	271
264	274
264	276
264	284
264	285
264	286
264	287
264	290
264	291
264	292
264	293
264	297
264	300
264	310
264	312
264	314
264	317
264	318
264	319
264	320
264	321
264	322
264	324
264	325
264	332
264	334
264	335
264	336
264	337
264	339
264	340
264	341
264	343
264	345
264	353
264	354
264	356
264	357
264	358
264	362
264	363
264	364
264	365
264	366
264	369
264	370
264	371
264	372
264	374
264	384
264	393
264	394
264	396
264	408
264	415
264	418
264	420
264	425
264	487
265	266
265	290
265	293
265	297
265	300
265	310
265	316
265	318
265	323
265	324
265	325
265	332
265	338
265	339
265	341
265	342
265	343
265	344
265	358
265	362
265	364
265	368
265	369
265	370
265	375
265	376
265	378
265	384
265	393
265	394
265	396
265	397
265	398
265	408
265	409
265	410
265	412
265	414
265	416
265	417
265	457
266	267
266	270
266	271
266	276
266	286
266	296
266	297
266	300
266	311
266	316
266	323
266	325
266	330
266	332
266	340
266	342
266	343
266	344
266	353
266	358
266	368
266	369
266	375
266	376
266	378
266	384
266	394
266	395
266	396
266	398
266	404
266	409
266	410
266	412
266	432
267	270
267	271
267	276
267	297
267	299
267	300
267	310
267	315
267	323
267	324
267	325
267	330
267	341
267	342
267	343
267	344
267	353
267	357
267	358
267	365
267	368
267	375
267	376
267	378
267	393
267	395
267	412
268	269
268	270
268	271
268	272
268	273
268	274
268	275
268	276
268	288
268	294
268	295
268	297
268	298
268	299
268	300
268	301
268	302
268	303
268	304
268	305
268	306
268	307
268	311
268	312
268	313
268	314
268	315
268	326
268	327
268	328
268	329
268	331
268	332
268	345
268	346
268	347
268	348
268	349
268	350
268	351
268	352
268	353
268	355
268	359
268	360
268	376
268	377
268	379
268	380
268	382
268	384
268	390
268	399
268	400
268	401
268	404
268	406
268	421
268	422
268	423
268	424
268	426
268	428
268	430
268	431
268	433
268	434
268	436
268	437
268	438
268	439
268	440
268	441
268	442
268	445
268	450
268	451
268	458
268	489
268	490
268	504
268	505
268	520
268	521
268	524
268	531
268	532
268	533
268	544
268	545
268	546
268	547
268	559
268	561
268	562
268	564
268	565
268	566
268	567
268	568
268	569
268	570
268	571
268	572
268	573
268	574
268	575
268	582
268	583
268	584
269	270
269	271
269	272
269	273
269	274
269	275
269	276
269	286
269	288
269	293
269	294
269	295
269	298
269	299
269	300
269	301
269	302
269	303
269	304
269	305
269	306
269	307
269	311
269	312
269	313
269	314
269	315
269	323
269	326
269	327
269	328
269	329
269	331
269	332
269	345
269	346
269	347
269	348
269	349
269	350
269	351
269	352
269	353
269	354
269	355
269	358
269	359
269	360
269	361
269	366
269	367
269	376
269	377
269	379
269	380
269	381
269	382
269	384
269	390
269	395
269	399
269	400
269	401
269	404
269	421
269	422
269	423
269	424
269	426
269	427
269	428
269	429
269	430
269	431
269	433
269	434
269	435
269	437
269	438
269	439
269	440
269	441
269	442
269	445
269	450
269	451
269	458
269	489
269	490
269	504
269	505
269	515
269	520
269	521
269	531
269	532
269	533
269	544
269	545
269	546
269	547
269	559
269	561
269	564
269	565
269	566
269	567
269	568
269	569
269	570
269	571
269	572
269	573
269	574
269	575
269	578
269	583
270	271
270	272
270	273
270	274
270	275
270	276
270	284
270	285
270	286
270	287
270	288
270	291
270	292
270	293
270	294
270	295
270	296
270	297
270	298
270	299
270	300
270	301
270	302
270	303
270	304
270	305
270	306
270	307
270	310
270	311
270	312
270	313
270	314
270	315
270	317
270	318
270	319
270	323
270	324
270	325
270	326
270	327
270	328
270	329
270	330
270	331
270	332
270	335
270	336
270	340
270	341
270	342
270	343
270	344
270	345
270	346
270	347
270	348
270	349
270	351
270	352
270	353
270	354
270	358
270	359
270	360
270	361
270	364
270	365
270	366
270	367
270	368
270	376
270	379
270	380
270	381
270	382
270	383
270	384
270	390
270	391
270	395
270	398
270	399
270	400
270	401
270	404
270	406
270	412
270	421
270	422
270	423
270	428
270	429
270	431
270	432
270	433
270	434
270	435
270	437
270	440
270	443
270	447
270	490
270	504
270	505
270	515
270	524
270	526
270	536
270	539
270	540
270	541
270	542
270	544
270	545
270	546
270	549
270	554
270	564
270	585
270	586
271	272
271	273
271	274
271	275
271	276
271	284
271	286
271	288
271	291
271	292
271	293
271	294
271	295
271	297
271	298
271	299
271	300
271	301
271	302
271	303
271	304
271	305
271	306
271	307
271	311
271	312
271	314
271	315
271	318
271	319
271	323
271	324
271	325
271	326
271	327
271	328
271	329
271	331
271	332
271	333
271	336
271	341
271	342
271	343
271	344
271	345
271	346
271	347
271	348
271	349
271	351
271	352
271	353
271	355
271	358
271	359
271	360
271	361
271	366
271	367
271	368
271	376
271	377
271	379
271	380
271	383
271	384
271	390
271	395
271	398
271	399
271	400
271	401
271	404
271	421
271	422
271	423
271	424
271	426
271	431
271	433
271	434
271	435
271	438
271	440
271	441
271	443
271	445
271	447
271	449
271	487
271	489
271	490
271	505
271	506
271	514
271	520
271	522
271	533
271	536
271	537
271	541
271	544
271	545
271	546
271	555
271	559
271	564
271	565
271	566
271	574
272	273
272	274
272	275
272	276
272	286
272	288
272	293
272	294
272	295
272	297
272	298
272	299
272	300
272	301
272	302
272	303
272	304
272	305
272	306
272	307
272	311
272	312
272	313
272	314
272	315
272	326
272	328
272	329
272	331
272	332
272	345
272	347
272	348
272	349
272	350
272	351
272	352
272	353
272	355
272	359
272	360
272	376
272	377
272	379
272	380
272	381
272	382
272	384
272	390
272	401
272	404
272	406
272	421
272	422
272	423
272	424
272	426
272	427
272	430
272	431
272	433
272	434
272	436
272	437
272	438
272	439
272	440
272	441
272	442
272	445
272	447
272	450
272	451
272	458
272	490
272	504
272	505
272	520
272	521
272	531
272	532
272	533
272	544
272	545
272	546
272	547
272	559
272	561
272	564
272	565
272	566
272	567
272	568
272	569
272	570
272	571
272	572
272	573
272	574
272	575
272	580
272	582
272	583
272	584
273	274
273	275
273	276
273	286
273	288
273	291
273	294
273	296
273	298
273	299
273	300
273	301
273	302
273	303
273	304
273	305
273	306
273	307
273	311
273	312
273	313
273	314
273	315
273	326
273	327
273	328
273	329
273	331
273	332
273	345
273	346
273	347
273	348
273	349
273	350
273	351
273	352
273	353
273	355
273	359
273	360
273	361
273	367
273	376
273	377
273	379
273	380
273	381
273	382
273	384
273	390
273	391
273	399
273	401
273	404
273	421
273	422
273	423
273	424
273	426
273	428
273	429
273	430
273	431
273	433
273	434
273	436
273	437
273	438
273	439
273	440
273	441
273	442
273	445
273	447
273	450
273	451
273	458
273	490
273	504
273	505
273	515
273	520
273	521
273	531
273	532
273	533
273	539
273	544
273	546
273	547
273	559
273	561
273	562
273	564
273	566
273	567
273	568
273	569
273	570
273	571
273	572
273	573
273	574
273	575
273	580
273	582
273	583
273	584
274	275
274	276
274	284
274	286
274	287
274	288
274	291
274	293
274	294
274	295
274	296
274	297
274	298
274	299
274	300
274	301
274	302
274	303
274	304
274	305
274	306
274	307
274	311
274	312
274	313
274	314
274	315
274	318
274	319
274	323
274	324
274	325
274	326
274	327
274	328
274	331
274	332
274	334
274	336
274	341
274	342
274	345
274	346
274	347
274	348
274	349
274	350
274	351
274	352
274	355
274	358
274	359
274	360
274	361
274	364
274	366
274	367
274	368
274	376
274	379
274	380
274	381
274	382
274	383
274	384
274	390
274	391
274	395
274	399
274	401
274	406
274	421
274	422
274	423
274	424
274	426
274	427
274	428
274	429
274	430
274	431
274	432
274	433
274	434
274	435
274	436
274	437
274	438
274	439
274	440
274	441
274	447
274	458
274	489
274	490
274	504
274	505
274	506
274	514
274	515
274	521
274	522
274	524
274	526
274	532
274	533
274	536
274	537
274	538
274	542
274	543
274	544
274	545
274	546
274	547
274	554
274	555
274	559
274	561
274	562
274	572
274	573
274	575
274	576
274	578
274	585
274	593
274	594
275	276
275	286
275	288
275	294
275	297
275	298
275	299
275	300
275	301
275	302
275	303
275	304
275	305
275	306
275	307
275	311
275	312
275	313
275	314
275	315
275	323
275	326
275	327
275	328
275	331
275	332
275	345
275	346
275	347
275	348
275	349
275	350
275	351
275	352
275	355
275	359
275	360
275	361
275	366
275	377
275	379
275	380
275	381
275	382
275	384
275	390
275	391
275	401
275	404
275	406
275	421
275	422
275	423
275	424
275	426
275	427
275	428
275	429
275	430
275	431
275	433
275	434
275	435
275	436
275	437
275	438
275	439
275	440
275	441
275	442
275	445
275	450
275	451
275	458
275	489
275	490
275	504
275	505
275	506
275	520
275	521
275	531
275	532
275	533
275	540
275	541
275	544
275	545
275	546
275	547
275	548
275	553
275	555
275	559
275	561
275	562
275	564
275	565
275	566
275	567
275	569
275	570
275	571
275	572
275	573
275	574
275	575
275	577
275	578
275	579
275	580
275	582
275	583
275	584
275	585
275	594
276	286
276	287
276	288
276	291
276	294
276	295
276	296
276	297
276	298
276	299
276	300
276	301
276	302
276	303
276	304
276	305
276	306
276	307
276	310
276	311
276	312
276	313
276	314
276	315
276	319
276	323
276	324
276	325
276	326
276	327
276	328
276	329
276	331
276	332
276	336
276	341
276	342
276	343
276	344
276	345
276	346
276	347
276	348
276	349
276	350
276	351
276	352
276	353
276	354
276	355
276	358
276	359
276	360
276	361
276	364
276	365
276	366
276	368
276	369
276	370
276	374
276	379
276	380
276	381
276	382
276	383
276	384
276	390
276	391
276	393
276	395
276	401
276	406
276	412
276	421
276	422
276	423
276	424
276	426
276	428
276	429
276	430
276	431
276	432
276	433
276	435
276	437
276	438
276	440
276	441
276	442
276	443
276	447
276	448
276	449
276	504
276	505
276	506
276	515
276	521
276	524
276	526
276	527
276	528
276	531
276	532
276	533
276	534
276	535
276	536
276	537
276	538
276	539
276	540
276	541
276	542
276	544
276	545
276	548
276	549
276	550
276	551
276	552
276	553
276	554
276	555
276	556
276	558
276	559
276	561
276	562
276	564
276	570
276	572
276	573
276	576
276	578
276	582
276	585
276	586
276	587
276	588
276	591
276	593
276	600
277	278
277	279
277	280
277	281
277	282
277	283
277	308
277	373
277	385
277	386
277	387
277	388
277	402
277	403
277	405
277	413
277	415
277	444
277	453
277	459
277	460
277	461
277	462
277	464
277	466
277	467
277	468
277	469
277	470
277	471
277	472
277	473
277	475
277	476
277	478
277	479
277	480
277	481
277	482
277	483
277	484
277	485
277	486
277	487
277	488
277	491
277	492
277	493
277	494
277	495
277	496
277	497
277	498
277	499
277	500
277	501
277	502
277	503
277	507
277	508
277	509
277	510
277	511
277	513
277	516
277	517
277	518
277	519
277	523
277	563
277	613
277	614
277	616
277	617
277	618
277	619
277	620
277	621
277	622
277	623
277	624
277	625
277	629
277	630
277	631
277	632
277	633
277	634
277	636
277	637
277	638
277	639
277	640
277	641
277	642
277	643
277	644
277	645
277	646
277	647
277	648
277	649
277	650
277	651
277	652
277	653
277	654
277	655
277	656
277	657
277	658
277	659
277	660
277	661
277	662
277	663
277	664
277	665
277	666
277	668
277	669
277	670
277	671
277	672
277	673
277	674
277	675
277	676
277	678
277	679
277	680
277	681
277	682
277	683
277	684
277	685
277	686
277	687
277	691
277	692
277	693
277	694
277	695
277	696
277	697
277	699
277	700
277	701
277	702
277	703
277	704
277	705
277	706
277	707
277	708
277	710
277	711
277	712
277	713
277	714
277	715
277	716
277	717
277	718
277	719
277	720
277	722
277	723
277	724
277	725
277	726
277	727
277	729
277	730
277	731
277	732
277	734
277	735
277	736
277	737
277	738
277	739
277	741
277	742
277	744
277	748
277	749
277	752
277	753
277	754
277	756
277	760
277	761
277	762
277	763
277	764
277	766
277	767
277	768
277	776
277	779
277	785
277	791
277	793
277	794
277	806
277	808
277	809
277	810
277	811
277	812
277	814
277	817
277	818
277	819
277	820
277	821
277	822
277	823
277	824
277	825
277	826
277	827
277	828
277	829
278	279
278	280
278	281
278	282
278	283
278	308
278	373
278	385
278	386
278	387
278	402
278	403
278	405
278	413
278	444
278	459
278	460
278	461
278	466
278	467
278	468
278	469
278	470
278	471
278	472
278	473
278	475
278	476
278	478
278	479
278	480
278	481
278	482
278	483
278	484
278	485
278	487
278	488
278	491
278	492
278	493
278	494
278	495
278	496
278	497
278	499
278	500
278	501
278	502
278	503
278	507
278	508
278	509
278	510
278	511
278	513
278	516
278	518
278	519
278	523
278	613
278	615
278	616
278	617
278	618
278	619
278	620
278	621
278	622
278	623
278	624
278	629
278	630
278	632
278	633
278	634
278	636
278	638
278	639
278	640
278	641
278	642
278	643
278	644
278	645
278	646
278	647
278	648
278	649
278	650
278	651
278	652
278	653
278	654
278	655
278	656
278	657
278	658
278	659
278	660
278	661
278	662
278	663
278	666
278	669
278	671
278	672
278	673
278	674
278	675
278	676
278	680
278	681
278	682
278	683
278	684
278	685
278	686
278	687
278	691
278	693
278	694
278	695
278	699
278	700
278	701
278	702
278	703
278	704
278	706
278	710
278	711
278	712
278	713
278	717
278	719
278	721
278	722
278	724
278	726
278	730
278	731
278	732
278	733
278	734
278	735
278	736
278	737
278	738
278	739
278	745
278	748
278	749
278	761
278	763
278	764
278	767
278	768
278	771
278	776
278	779
278	785
278	788
278	797
278	799
278	806
278	808
278	809
278	810
278	811
278	812
278	814
278	817
278	818
278	821
278	822
278	823
278	824
278	826
278	829
278	832
278	836
278	837
278	839
278	843
278	848
278	856
278	858
278	859
278	860
279	280
279	281
279	282
279	283
279	308
279	373
279	386
279	387
279	388
279	402
279	403
279	405
279	413
279	444
279	460
279	461
279	462
279	467
279	468
279	469
279	470
279	471
279	472
279	473
279	475
279	476
279	478
279	479
279	480
279	481
279	482
279	483
279	485
279	491
279	492
279	493
279	495
279	496
279	499
279	500
279	501
279	503
279	507
279	509
279	510
279	513
279	516
279	519
279	613
279	614
279	616
279	619
279	620
279	621
279	623
279	624
279	627
279	630
279	631
279	632
279	633
279	634
279	635
279	636
279	638
279	639
279	640
279	641
279	642
279	643
279	644
279	645
279	646
279	647
279	648
279	649
279	650
279	651
279	652
279	653
279	655
279	659
279	660
279	662
279	663
279	664
279	669
279	672
279	674
279	675
279	676
279	677
279	679
279	681
279	682
279	683
279	684
279	685
279	686
279	687
279	692
279	693
279	694
279	695
279	696
279	700
279	701
279	702
279	703
279	707
279	708
279	711
279	712
279	716
279	717
279	724
279	730
279	731
279	732
279	735
279	737
279	739
279	763
279	764
279	768
279	785
279	806
279	808
279	809
279	811
279	814
279	834
279	841
279	851
279	856
280	281
280	282
280	283
280	308
280	373
280	385
280	386
280	387
280	388
280	392
280	402
280	403
280	405
280	413
280	415
280	419
280	444
280	456
280	459
280	460
280	461
280	462
280	464
280	465
280	466
280	467
280	468
280	469
280	470
280	471
280	472
280	473
280	475
280	476
280	478
280	479
280	480
280	481
280	482
280	483
280	484
280	485
280	486
280	487
280	488
280	491
280	492
280	493
280	494
280	495
280	496
280	497
280	498
280	499
280	500
280	501
280	502
280	503
280	507
280	508
280	509
280	510
280	511
280	513
280	516
280	517
280	518
280	519
280	523
280	563
280	603
280	613
280	614
280	615
280	616
280	619
280	620
280	621
280	622
280	623
280	624
280	625
280	627
280	629
280	630
280	631
280	632
280	633
280	634
280	635
280	636
280	637
280	638
280	639
280	640
280	641
280	642
280	643
280	644
280	645
280	646
280	647
280	648
280	649
280	650
280	651
280	652
280	653
280	654
280	655
280	656
280	657
280	658
280	659
280	660
280	661
280	662
280	663
280	664
280	665
280	666
280	668
280	669
280	671
280	672
280	673
280	674
280	675
280	676
280	678
280	680
280	681
280	682
280	683
280	684
280	685
280	686
280	687
280	688
280	691
280	692
280	693
280	694
280	695
280	696
280	697
280	698
280	699
280	700
280	701
280	702
280	703
280	704
280	705
280	706
280	707
280	708
280	710
280	711
280	712
280	713
280	714
280	715
280	716
280	717
280	718
280	719
280	720
280	721
280	722
280	723
280	724
280	726
280	727
280	728
280	730
280	731
280	732
280	733
280	734
280	735
280	736
280	737
280	738
280	739
280	740
280	741
280	742
280	743
280	744
280	745
280	746
280	747
280	748
280	749
280	752
280	756
280	761
280	764
280	767
280	768
280	774
280	775
280	776
280	778
280	779
280	782
280	785
280	787
280	791
280	793
280	795
280	800
280	801
280	803
280	804
280	806
280	808
280	809
280	810
280	811
280	815
280	817
280	821
280	824
280	825
280	828
280	829
280	830
280	831
280	837
280	851
280	856
280	857
280	858
280	859
280	860
280	863
280	869
280	870
280	871
280	881
280	882
281	282
281	283
281	308
281	373
281	385
281	386
281	387
281	388
281	402
281	403
281	405
281	413
281	444
281	460
281	461
281	462
281	463
281	464
281	465
281	466
281	467
281	468
281	469
281	470
281	471
281	472
281	473
281	474
281	475
281	476
281	478
281	479
281	480
281	481
281	482
281	483
281	484
281	485
281	491
281	492
281	495
281	496
281	497
281	498
281	499
281	501
281	503
281	507
281	508
281	509
281	510
281	512
281	516
281	519
281	523
281	563
281	601
281	613
281	614
281	616
281	620
281	621
281	622
281	623
281	629
281	630
281	631
281	632
281	633
281	634
281	636
281	639
281	640
281	641
281	642
281	643
281	644
281	645
281	646
281	647
281	648
281	649
281	650
281	651
281	652
281	653
281	654
281	655
281	656
281	657
281	658
281	661
281	662
281	663
281	666
281	669
281	672
281	673
281	674
281	675
281	678
281	679
281	680
281	681
281	682
281	684
281	685
281	686
281	687
281	691
281	692
281	694
281	695
281	696
281	697
281	698
281	699
281	701
281	702
281	703
281	704
281	705
281	711
281	712
281	713
281	714
281	715
281	716
281	717
281	718
281	719
281	720
281	723
281	725
281	726
281	727
281	729
281	730
281	732
281	739
281	740
281	741
281	742
281	747
281	763
281	764
281	766
281	772
281	773
281	785
281	786
281	792
281	793
281	794
281	805
281	806
281	809
281	830
281	871
282	283
282	308
282	373
282	385
282	386
282	387
282	388
282	392
282	402
282	403
282	405
282	413
282	415
282	444
282	446
282	456
282	460
282	461
282	462
282	464
282	466
282	467
282	468
282	469
282	470
282	471
282	472
282	473
282	475
282	476
282	478
282	479
282	480
282	481
282	482
282	483
282	485
282	491
282	492
282	493
282	494
282	495
282	496
282	497
282	499
282	501
282	502
282	503
282	507
282	508
282	509
282	510
282	511
282	512
282	516
282	517
282	518
282	519
282	523
282	563
282	601
282	613
282	614
282	615
282	616
282	620
282	621
282	622
282	623
282	624
282	626
282	628
282	629
282	630
282	631
282	632
282	633
282	634
282	635
282	636
282	638
282	639
282	640
282	641
282	642
282	643
282	644
282	645
282	646
282	647
282	648
282	649
282	650
282	651
282	652
282	653
282	654
282	655
282	656
282	657
282	658
282	659
282	660
282	661
282	662
282	663
282	664
282	666
282	668
282	669
282	671
282	672
282	673
282	674
282	675
282	676
282	677
282	678
282	679
282	680
282	681
282	682
282	683
282	684
282	685
282	686
282	687
282	691
282	692
282	693
282	694
282	695
282	696
282	697
282	698
282	699
282	700
282	701
282	702
282	703
282	704
282	705
282	706
282	707
282	708
282	710
282	711
282	712
282	713
282	714
282	715
282	716
282	717
282	718
282	719
282	722
282	723
282	725
282	726
282	727
282	729
282	730
282	732
282	734
282	735
282	739
282	740
282	741
282	742
282	743
282	744
282	745
282	747
282	748
282	751
282	752
282	754
282	757
282	760
282	764
282	766
282	767
282	768
282	772
282	773
282	774
282	775
282	776
282	780
282	782
282	785
282	800
282	804
282	809
282	810
282	812
282	814
282	831
282	833
282	846
282	847
282	860
282	871
282	878
282	884
283	308
283	373
283	386
283	388
283	402
283	403
283	405
283	413
283	444
283	459
283	460
283	461
283	464
283	467
283	468
283	469
283	470
283	471
283	472
283	473
283	475
283	476
283	478
283	479
283	480
283	481
283	482
283	483
283	485
283	491
283	492
283	495
283	496
283	499
283	500
283	501
283	503
283	507
283	508
283	510
283	511
283	512
283	516
283	616
283	621
283	622
283	624
283	626
283	627
283	628
283	629
283	630
283	631
283	632
283	633
283	634
283	636
283	637
283	638
283	639
283	640
283	641
283	642
283	643
283	644
283	645
283	646
283	647
283	648
283	649
283	650
283	651
283	652
283	653
283	654
283	655
283	662
283	663
283	664
283	665
283	666
283	668
283	669
283	671
283	672
283	673
283	674
283	675
283	678
283	679
283	681
283	682
283	683
283	684
283	685
283	686
283	687
283	688
283	690
283	691
283	692
283	693
283	694
283	695
283	696
283	699
283	700
283	701
283	702
283	703
283	704
283	711
283	715
283	717
283	722
283	723
283	731
283	732
283	734
283	737
283	739
283	806
283	809
284	285
284	286
284	287
284	288
284	291
284	292
284	293
284	297
284	304
284	317
284	318
284	319
284	320
284	321
284	324
284	336
284	337
284	343
284	353
284	355
285	286
285	287
285	288
285	291
285	292
285	293
285	299
285	300
285	312
285	317
285	318
285	319
285	320
285	322
285	324
285	325
285	331
285	334
285	336
285	337
285	341
285	349
285	356
285	360
285	363
286	287
286	288
286	290
286	291
286	292
286	293
286	296
286	297
286	298
286	299
286	300
286	301
286	304
286	305
286	309
286	310
286	311
286	312
286	314
286	315
286	317
286	318
286	319
286	320
286	321
286	322
286	323
286	324
286	325
286	326
286	328
286	329
286	331
286	332
286	334
286	335
286	336
286	337
286	341
286	342
286	347
286	351
286	353
286	354
286	355
286	356
286	357
286	358
286	359
286	360
286	361
286	362
286	363
286	364
286	365
286	366
286	367
286	368
286	369
286	372
286	374
286	378
286	384
286	393
286	394
286	399
286	428
286	430
286	432
286	524
286	525
287	290
287	291
287	292
287	293
287	299
287	300
287	309
287	315
287	316
287	317
287	318
287	319
287	320
287	321
287	322
287	324
287	325
287	332
287	334
287	335
287	336
287	337
287	338
287	340
287	341
287	349
287	353
287	354
287	355
287	356
287	357
287	358
287	359
287	362
287	363
287	364
287	369
287	370
287	371
287	374
287	376
287	393
287	396
287	409
287	418
287	431
287	438
288	291
288	293
288	294
288	295
288	296
288	297
288	298
288	299
288	300
288	301
288	302
288	303
288	304
288	305
288	306
288	307
288	311
288	312
288	313
288	314
288	315
288	317
288	325
288	326
288	327
288	328
288	329
288	331
288	332
288	333
288	336
288	341
288	345
288	346
288	347
288	348
288	349
288	350
288	351
288	352
288	353
288	355
288	358
288	359
288	360
288	361
288	366
288	367
288	368
288	376
288	377
288	379
288	380
288	382
288	384
288	390
288	395
288	398
288	399
288	400
288	401
288	404
288	412
288	421
288	422
288	423
288	424
288	426
288	428
288	429
288	430
288	431
288	433
288	434
288	435
288	436
288	437
288	438
288	439
288	440
288	441
288	442
288	445
288	450
288	451
288	458
288	489
288	490
288	504
288	505
288	520
288	521
288	531
288	532
288	533
288	534
288	541
288	544
288	545
288	546
288	547
288	555
288	559
288	561
288	562
288	564
288	565
288	566
288	567
288	568
288	569
288	570
288	571
288	572
288	573
288	575
288	580
288	582
288	583
288	584
289	290
289	362
289	393
289	396
289	407
289	408
290	293
290	309
290	316
290	317
290	320
290	321
290	322
290	324
290	325
290	334
290	335
290	343
290	344
290	362
290	363
290	369
290	370
290	374
290	378
290	393
290	396
290	397
290	407
290	408
290	409
290	410
290	411
290	414
290	416
290	417
291	292
291	293
291	294
291	296
291	297
291	299
291	300
291	301
291	302
291	304
291	305
291	310
291	311
291	312
291	315
291	317
291	318
291	319
291	320
291	321
291	322
291	324
291	325
291	328
291	334
291	336
291	337
291	341
291	344
291	355
291	356
291	357
291	358
291	360
291	361
291	363
291	365
291	368
291	369
291	372
291	373
291	390
291	429
291	430
291	431
291	432
292	293
292	300
292	317
292	318
292	319
292	320
292	321
292	322
292	323
292	324
292	325
292	334
292	336
292	337
292	341
292	356
292	358
292	363
292	365
293	300
293	309
293	311
293	317
293	318
293	319
293	320
293	321
293	322
293	323
293	325
293	331
293	332
293	333
293	334
293	336
293	337
293	341
293	351
293	356
293	362
293	363
293	369
293	371
293	380
293	393
293	395
293	418
293	441
294	298
294	299
294	300
294	301
294	303
294	304
294	305
294	306
294	307
294	312
294	328
294	329
294	331
294	345
294	346
294	351
294	376
294	377
294	379
294	380
294	395
294	400
294	401
294	404
294	421
294	422
294	430
294	441
294	445
294	450
294	451
294	520
294	531
294	564
294	565
294	566
294	567
294	569
294	580
295	296
295	297
295	298
295	299
295	300
295	301
295	302
295	304
295	305
295	306
295	307
295	310
295	311
295	312
295	313
295	314
295	315
295	318
295	324
295	325
295	326
295	327
295	328
295	331
295	332
295	341
295	346
295	347
295	348
295	349
295	351
295	352
295	353
295	358
295	359
295	360
295	361
295	366
295	368
295	381
295	382
295	384
295	428
295	429
295	432
295	434
295	435
295	440
295	449
295	489
295	504
295	505
295	515
295	521
295	540
295	541
295	542
295	545
295	548
295	587
296	297
296	298
296	299
296	300
296	301
296	305
296	307
296	310
296	311
296	312
296	314
296	315
296	323
296	325
296	326
296	327
296	328
296	332
296	336
296	340
296	341
296	342
296	343
296	347
296	349
296	351
296	352
296	353
296	355
296	358
296	359
296	365
296	366
296	368
296	380
296	383
296	384
296	428
296	429
296	432
296	434
296	435
296	440
296	448
296	504
296	505
296	515
297	298
297	299
297	300
297	301
297	302
297	303
297	304
297	305
297	307
297	310
297	311
297	312
297	313
297	314
297	315
297	318
297	323
297	325
297	326
297	327
297	328
297	331
297	332
297	335
297	336
297	339
297	340
297	341
297	342
297	343
297	344
297	347
297	351
297	352
297	353
297	355
297	358
297	359
297	360
297	361
297	364
297	365
297	366
297	368
297	369
297	374
297	375
297	378
297	380
297	383
297	384
297	391
297	428
297	429
297	431
297	432
297	435
297	440
297	447
297	448
297	449
297	504
297	505
297	506
297	515
297	524
297	526
297	541
297	544
297	579
298	299
298	300
298	301
298	302
298	303
298	304
298	305
298	306
298	307
298	311
298	312
298	313
298	314
298	315
298	318
298	319
298	323
298	324
298	325
298	326
298	327
298	328
298	331
298	332
298	346
298	347
298	348
298	349
298	351
298	352
298	353
298	355
298	358
298	359
298	360
298	365
298	366
298	368
298	379
298	380
298	381
298	382
298	384
298	390
298	391
298	404
298	421
298	423
298	426
298	428
298	429
298	431
298	434
298	435
298	437
298	438
298	440
298	441
298	445
298	447
298	504
298	505
298	506
298	514
298	515
298	524
298	526
298	532
298	534
298	536
298	539
298	541
298	545
299	300
299	301
299	302
299	303
299	304
299	305
299	306
299	307
299	311
299	312
299	313
299	314
299	315
299	318
299	323
299	325
299	326
299	327
299	328
299	331
299	332
299	345
299	346
299	347
299	348
299	349
299	350
299	351
299	352
299	353
299	355
299	358
299	359
299	360
299	361
299	366
299	367
299	368
299	379
299	380
299	381
299	382
299	384
299	390
299	391
299	395
299	401
299	404
299	421
299	422
299	423
299	424
299	426
299	427
299	428
299	429
299	430
299	431
299	433
299	434
299	435
299	437
299	438
299	439
299	440
299	441
299	442
299	443
299	445
299	447
299	449
299	451
299	490
299	504
299	505
299	506
299	514
299	515
299	521
299	522
299	524
299	526
299	532
299	533
299	534
299	535
299	536
299	537
299	539
299	541
299	542
299	544
299	545
299	546
299	548
299	554
299	559
299	561
299	562
299	564
299	566
299	572
299	573
299	575
299	578
300	301
300	302
300	304
300	305
300	306
300	307
300	310
300	311
300	312
300	313
300	314
300	315
300	318
300	319
300	323
300	324
300	325
300	326
300	327
300	328
300	330
300	331
300	332
300	336
300	339
300	340
300	341
300	342
300	343
300	344
300	345
300	346
300	347
300	348
300	349
300	350
300	351
300	352
300	353
300	354
300	355
300	358
300	359
300	360
300	361
300	364
300	365
300	366
300	367
300	368
300	374
300	375
300	376
300	378
300	379
300	380
300	381
300	382
300	383
300	384
300	390
300	391
300	395
300	398
300	400
300	404
300	406
300	421
300	422
300	423
300	424
300	426
300	427
300	428
300	429
300	431
300	432
300	434
300	435
300	437
300	438
300	439
300	440
300	442
300	443
300	447
300	448
300	449
300	489
300	504
300	505
300	506
300	514
300	515
300	521
300	524
300	526
300	527
300	533
300	534
300	535
300	536
300	538
300	539
300	540
300	541
300	542
300	543
300	544
300	545
300	546
300	547
300	548
300	549
300	550
300	552
300	553
300	554
300	555
300	556
300	557
300	558
300	559
300	562
300	563
300	564
300	575
300	576
300	577
300	578
300	579
300	585
300	586
300	587
300	588
300	589
300	590
300	591
300	592
300	593
300	594
300	595
300	596
301	302
301	303
301	304
301	305
301	306
301	307
301	311
301	312
301	313
301	314
301	315
301	317
301	323
301	325
301	326
301	327
301	328
301	329
301	331
301	332
301	336
301	345
301	346
301	347
301	348
301	349
301	350
301	351
301	352
301	353
301	355
301	358
301	359
301	360
301	361
301	366
301	367
301	368
301	377
301	379
301	380
301	381
301	382
301	383
301	384
301	390
301	391
301	399
301	401
301	404
301	406
301	421
301	422
301	423
301	424
301	426
301	427
301	428
301	429
301	430
301	431
301	433
301	434
301	435
301	437
301	438
301	439
301	440
301	441
301	442
301	443
301	445
301	447
301	450
301	451
301	458
301	489
301	490
301	504
301	505
301	506
301	514
301	515
301	520
301	521
301	524
301	526
301	531
301	532
301	533
301	536
301	537
301	538
301	539
301	540
301	541
301	542
301	543
301	544
301	545
301	546
301	547
301	548
301	550
301	552
301	553
301	554
301	555
301	556
301	557
301	559
301	561
301	562
301	564
301	566
301	567
301	569
301	570
301	571
301	572
301	573
301	574
301	575
301	578
301	579
301	582
301	583
301	585
301	592
301	596
302	303
302	304
302	305
302	306
302	307
302	311
302	312
302	313
302	314
302	315
302	326
302	327
302	328
302	331
302	332
302	346
302	347
302	348
302	349
302	350
302	351
302	352
302	353
302	355
302	359
302	360
302	365
302	366
302	379
302	380
302	381
302	382
302	384
302	390
302	401
302	404
302	421
302	422
302	423
302	424
302	426
302	428
302	429
302	430
302	431
302	433
302	435
302	437
302	438
302	439
302	440
302	441
302	442
302	443
302	445
302	447
302	451
302	505
302	520
302	521
302	532
302	533
302	536
302	540
302	544
302	546
302	547
302	559
302	561
302	573
302	574
302	575
303	304
303	305
303	306
303	307
303	311
303	312
303	313
303	314
303	315
303	326
303	327
303	328
303	331
303	332
303	343
303	346
303	347
303	348
303	349
303	351
303	352
303	353
303	359
303	360
303	361
303	366
303	376
303	377
303	379
303	380
303	381
303	382
303	384
303	390
303	391
303	401
303	404
303	421
303	422
303	423
303	424
303	426
303	429
303	431
303	433
303	434
303	435
303	437
303	438
303	440
303	441
303	447
303	451
303	504
303	505
303	532
303	533
303	544
303	545
303	547
303	561
303	564
303	565
303	566
303	572
303	575
304	305
304	306
304	307
304	311
304	312
304	313
304	314
304	315
304	319
304	326
304	327
304	328
304	329
304	331
304	332
304	345
304	346
304	347
304	348
304	349
304	350
304	351
304	352
304	353
304	355
304	359
304	360
304	361
304	367
304	368
304	377
304	379
304	380
304	381
304	382
304	384
304	390
304	399
304	401
304	404
304	421
304	422
304	423
304	424
304	426
304	427
304	428
304	429
304	430
304	431
304	433
304	434
304	435
304	436
304	437
304	438
304	439
304	440
304	441
304	442
304	445
304	450
304	451
304	458
304	489
304	490
304	504
304	505
304	506
304	520
304	521
304	531
304	532
304	533
304	536
304	537
304	544
304	545
304	546
304	547
304	557
304	559
304	561
304	564
304	565
304	566
304	567
304	568
304	569
304	570
304	571
304	572
304	573
304	574
304	575
304	580
304	582
304	584
305	306
305	307
305	311
305	312
305	313
305	314
305	315
305	325
305	326
305	327
305	328
305	329
305	331
305	332
305	344
305	345
305	346
305	347
305	348
305	349
305	350
305	351
305	352
305	353
305	355
305	358
305	359
305	360
305	361
305	366
305	376
305	377
305	379
305	380
305	381
305	382
305	384
305	390
305	391
305	395
305	399
305	401
305	404
305	412
305	421
305	422
305	423
305	424
305	426
305	427
305	428
305	429
305	430
305	431
305	433
305	435
305	436
305	437
305	438
305	439
305	440
305	441
305	442
305	445
305	450
305	451
305	458
305	489
305	490
305	515
305	520
305	521
305	531
305	532
305	533
305	541
305	544
305	546
305	547
305	559
305	561
305	564
305	565
305	566
305	567
305	568
305	569
305	570
305	571
305	572
305	573
305	574
305	575
305	580
305	582
305	583
305	584
306	307
306	311
306	312
306	313
306	314
306	315
306	326
306	327
306	328
306	331
306	332
306	345
306	346
306	347
306	348
306	349
306	350
306	351
306	352
306	353
306	355
306	359
306	360
306	376
306	377
306	379
306	380
306	381
306	382
306	390
306	401
306	404
306	421
306	422
306	423
306	424
306	426
306	427
306	428
306	429
306	430
306	431
306	433
306	435
306	436
306	437
306	438
306	439
306	440
306	441
306	442
306	445
306	447
306	450
306	451
306	458
306	490
306	505
306	520
306	521
306	531
306	532
306	533
306	544
306	546
306	547
306	559
306	561
306	564
306	565
306	566
306	567
306	568
306	569
306	570
306	571
306	572
306	573
306	574
306	575
306	577
306	580
306	582
306	583
306	584
307	311
307	312
307	313
307	314
307	315
307	323
307	325
307	326
307	328
307	331
307	332
307	345
307	346
307	347
307	348
307	349
307	350
307	351
307	352
307	355
307	359
307	360
307	361
307	367
307	368
307	377
307	379
307	380
307	382
307	384
307	390
307	391
307	401
307	404
307	421
307	422
307	423
307	424
307	426
307	428
307	429
307	430
307	431
307	433
307	434
307	435
307	436
307	437
307	438
307	439
307	440
307	441
307	442
307	445
307	450
307	451
307	458
307	489
307	490
307	505
307	506
307	520
307	521
307	531
307	532
307	533
307	539
307	544
307	545
307	546
307	547
307	553
307	559
307	561
307	562
307	564
307	566
307	567
307	569
307	570
307	571
307	572
307	573
307	574
307	575
307	576
307	578
307	580
307	582
307	584
307	594
308	373
308	385
308	386
308	387
308	388
308	392
308	402
308	403
308	405
308	413
308	415
308	419
308	444
308	446
308	456
308	459
308	460
308	461
308	462
308	463
308	464
308	465
308	466
308	467
308	468
308	469
308	470
308	471
308	472
308	473
308	474
308	475
308	476
308	477
308	478
308	479
308	480
308	481
308	482
308	483
308	484
308	485
308	486
308	487
308	488
308	491
308	492
308	495
308	496
308	497
308	498
308	499
308	501
308	503
308	507
308	508
308	509
308	511
308	512
308	516
308	517
308	518
308	523
308	530
308	563
308	613
308	614
308	615
308	620
308	621
308	622
308	629
308	630
308	631
308	632
308	633
308	634
308	635
308	636
308	639
308	640
308	641
308	642
308	643
308	644
308	645
308	646
308	647
308	648
308	649
308	650
308	651
308	652
308	653
308	654
308	655
308	656
308	657
308	663
308	672
308	674
308	682
308	684
308	685
308	686
308	687
308	694
308	695
308	696
308	697
308	699
308	701
308	702
308	703
308	704
308	707
308	708
308	711
308	712
308	713
308	714
308	715
308	716
308	717
308	718
308	720
308	723
308	726
308	727
308	729
308	730
308	732
308	739
308	740
308	741
308	742
308	743
308	744
308	751
308	763
308	764
308	765
308	766
308	768
308	773
308	780
308	785
308	786
308	793
308	794
308	795
308	796
308	797
308	800
308	801
308	809
308	831
308	841
308	871
308	873
308	886
308	889
308	890
309	317
309	318
309	321
309	333
309	334
309	335
309	336
309	337
309	354
309	369
309	370
309	371
309	374
309	393
309	418
310	312
310	318
310	323
310	325
310	328
310	332
310	340
310	341
310	342
310	343
310	344
310	358
310	364
310	365
310	366
310	368
310	378
310	383
310	384
310	394
310	395
310	432
310	434
310	504
310	542
311	312
311	313
311	314
311	315
311	318
311	323
311	325
311	326
311	327
311	328
311	329
311	331
311	332
311	335
311	342
311	345
311	346
311	347
311	348
311	349
311	350
311	351
311	352
311	353
311	355
311	358
311	359
311	360
311	361
311	365
311	366
311	367
311	368
311	379
311	380
311	381
311	382
311	383
311	384
311	390
311	391
311	395
311	401
311	404
311	406
311	421
311	422
311	423
311	424
311	426
311	427
311	428
311	429
311	430
311	431
311	432
311	433
311	434
311	435
311	437
311	438
311	439
311	440
311	441
311	442
311	443
311	445
311	447
311	448
311	449
311	451
311	458
311	489
311	490
311	504
311	505
311	506
311	514
311	515
311	520
311	521
311	522
311	524
311	526
311	527
311	529
311	531
311	532
311	533
311	534
311	535
311	536
311	537
311	538
311	539
311	540
311	541
311	542
311	543
311	544
311	545
311	546
311	547
311	548
311	549
311	550
311	552
311	553
311	554
311	555
311	556
311	557
311	558
311	559
311	561
311	562
311	564
311	565
311	566
311	572
311	573
311	575
311	576
311	577
311	578
311	579
311	582
311	584
311	585
311	586
311	587
311	588
311	589
311	591
311	592
311	593
311	594
311	595
311	596
311	597
311	599
311	600
312	313
312	314
312	315
312	318
312	319
312	323
312	324
312	325
312	326
312	327
312	328
312	331
312	332
312	336
312	345
312	346
312	347
312	348
312	349
312	350
312	351
312	352
312	353
312	355
312	358
312	359
312	360
312	361
312	366
312	367
312	368
312	379
312	380
312	381
312	382
312	383
312	384
312	390
312	391
312	401
312	406
312	421
312	422
312	423
312	424
312	426
312	427
312	428
312	429
312	431
312	432
312	433
312	434
312	435
312	437
312	438
312	439
312	440
312	441
312	442
312	445
312	447
312	449
312	451
312	458
312	489
312	504
312	505
312	506
312	514
312	521
312	522
312	524
312	526
312	532
312	533
312	534
312	536
312	537
312	538
312	539
312	540
312	541
312	542
312	543
312	544
312	545
312	546
312	547
312	548
312	552
312	553
312	554
312	555
312	556
312	557
312	558
312	559
312	561
312	562
312	569
312	571
312	572
312	573
312	574
312	577
312	578
312	579
312	582
312	583
312	585
312	589
312	592
312	593
312	594
312	595
312	596
312	608
313	314
313	315
313	325
313	326
313	327
313	328
313	331
313	332
313	346
313	347
313	348
313	349
313	350
313	351
313	352
313	358
313	359
313	360
313	361
313	366
313	367
313	379
313	380
313	381
313	382
313	384
313	390
313	391
313	401
313	406
313	421
313	422
313	423
313	424
313	426
313	427
313	428
313	429
313	430
313	431
313	432
313	433
313	434
313	435
313	437
313	438
313	439
313	440
313	441
313	442
313	447
313	449
313	504
313	505
313	506
313	514
313	521
313	522
313	526
313	533
313	534
313	536
313	537
313	538
313	539
313	540
313	541
313	542
313	544
313	545
313	547
313	548
313	550
313	552
313	553
313	554
313	555
313	556
313	557
313	558
313	559
313	560
313	562
313	572
313	573
313	576
313	577
313	578
313	579
313	585
313	586
313	588
313	589
313	592
313	594
313	595
313	596
313	598
314	315
314	323
314	324
314	326
314	327
314	328
314	331
314	332
314	341
314	342
314	343
314	346
314	347
314	348
314	349
314	350
314	351
314	352
314	355
314	358
314	359
314	360
314	361
314	364
314	366
314	367
314	368
314	380
314	381
314	382
314	383
314	384
314	390
314	391
314	399
314	401
314	404
314	406
314	422
314	423
314	424
314	426
314	428
314	429
314	431
314	432
314	433
314	434
314	435
314	437
314	438
314	439
314	440
314	442
314	443
314	447
314	489
314	490
314	504
314	505
314	506
314	514
314	515
314	521
314	522
314	524
314	526
314	533
314	534
314	536
314	537
314	538
314	539
314	540
314	541
314	542
314	544
314	545
314	547
314	548
314	550
314	551
314	553
314	554
314	555
314	556
314	557
314	558
314	562
314	573
314	576
314	577
314	578
314	579
314	583
314	585
314	586
314	587
314	591
314	592
314	594
314	595
314	596
315	323
315	325
315	326
315	327
315	328
315	331
315	332
315	341
315	342
315	346
315	347
315	348
315	349
315	350
315	351
315	352
315	353
315	355
315	358
315	359
315	360
315	361
315	366
315	368
315	379
315	380
315	381
315	382
315	383
315	384
315	390
315	391
315	401
315	404
315	406
315	421
315	422
315	423
315	424
315	428
315	429
315	431
315	432
315	434
315	435
315	437
315	438
315	439
315	440
315	441
315	443
315	445
315	447
315	449
315	504
315	505
315	506
315	514
315	515
315	521
315	524
315	526
315	533
315	534
315	536
315	537
315	538
315	539
315	540
315	541
315	542
315	543
315	544
315	545
315	546
315	547
315	548
315	549
315	550
315	552
315	553
315	554
315	555
315	557
315	558
315	559
315	560
315	562
315	564
315	570
315	572
315	578
315	579
315	585
315	586
315	587
315	589
315	591
315	592
315	593
315	594
315	595
316	324
316	339
316	362
316	369
316	370
316	375
316	378
316	393
316	394
316	396
316	397
316	407
316	408
316	409
316	410
316	411
316	414
316	416
316	417
317	318
317	319
317	320
317	321
317	322
317	324
317	325
317	334
317	336
317	341
317	356
317	363
318	319
318	320
318	321
318	322
318	324
318	325
318	332
318	334
318	336
318	337
318	341
318	351
318	356
318	357
318	363
318	364
318	369
318	374
318	393
318	418
318	528
319	320
319	321
319	322
319	324
319	325
319	328
319	334
319	336
319	337
319	341
319	353
319	356
319	358
319	363
319	368
320	321
320	322
320	324
320	325
320	334
320	336
320	356
320	363
321	333
321	334
321	336
321	362
321	366
321	369
321	393
321	418
322	324
322	325
322	334
322	335
322	336
322	337
322	356
322	357
322	363
322	369
322	371
322	372
322	393
322	394
322	418
322	420
323	325
323	326
323	328
323	330
323	332
323	339
323	340
323	341
323	342
323	343
323	344
323	352
323	353
323	355
323	358
323	364
323	365
323	366
323	367
323	368
323	382
323	383
323	384
323	391
323	412
323	428
323	429
323	431
323	432
323	435
323	443
323	448
323	504
323	506
323	514
323	515
323	524
323	526
323	534
323	535
323	536
323	538
323	539
323	540
323	541
323	545
323	548
323	551
323	553
323	554
323	556
323	557
323	558
324	325
324	332
324	334
324	335
324	336
324	337
324	338
324	339
324	340
324	341
324	342
324	355
324	356
324	357
324	358
324	359
324	362
324	363
324	364
324	365
324	368
324	369
324	370
324	371
324	374
324	378
324	393
324	396
324	418
324	428
324	529
325	326
325	332
325	334
325	335
325	336
325	337
325	338
325	339
325	340
325	341
325	342
325	343
325	347
325	349
325	351
325	352
325	353
325	354
325	355
325	356
325	357
325	358
325	359
325	362
325	363
325	364
325	365
325	366
325	369
325	370
325	374
325	378
325	380
325	384
325	393
325	395
325	396
325	409
325	410
325	418
325	448
325	528
326	327
326	328
326	329
326	331
326	332
326	342
326	346
326	347
326	349
326	351
326	352
326	353
326	355
326	358
326	359
326	360
326	366
326	368
326	379
326	381
326	382
326	383
326	384
326	421
326	423
326	428
326	429
326	430
326	431
326	432
326	434
326	435
326	440
326	443
326	445
326	447
326	449
326	489
326	504
326	505
326	506
326	515
326	524
326	531
326	533
326	534
326	536
326	537
326	540
326	541
326	545
326	555
326	558
326	564
326	578
326	592
327	328
327	329
327	331
327	332
327	345
327	346
327	347
327	349
327	351
327	352
327	353
327	359
327	360
327	361
327	366
327	367
327	376
327	379
327	384
327	404
327	422
327	428
327	430
327	431
327	434
327	438
327	440
327	545
327	547
327	566
328	331
328	332
328	346
328	347
328	348
328	349
328	350
328	351
328	352
328	353
328	355
328	359
328	360
328	361
328	366
328	367
328	368
328	379
328	380
328	381
328	382
328	383
328	384
328	390
328	391
328	399
328	401
328	404
328	421
328	422
328	423
328	424
328	426
328	427
328	428
328	429
328	430
328	431
328	433
328	434
328	435
328	437
328	438
328	439
328	440
328	441
328	442
328	443
328	447
328	451
328	458
328	489
328	490
328	504
328	505
328	506
328	515
328	520
328	521
328	526
328	531
328	532
328	533
328	536
328	539
328	542
328	544
328	545
328	546
328	547
328	548
328	555
328	557
328	558
328	559
328	561
328	564
328	566
328	569
328	570
328	571
328	572
328	573
328	574
328	575
328	578
328	579
328	582
328	583
328	585
328	590
328	592
329	330
329	345
329	347
329	376
329	384
329	395
329	398
329	399
329	400
329	401
329	412
329	441
329	566
330	344
330	345
330	358
330	369
330	376
330	395
330	398
330	400
330	404
330	412
331	332
331	345
331	346
331	347
331	348
331	349
331	350
331	351
331	352
331	353
331	355
331	359
331	360
331	361
331	366
331	367
331	368
331	377
331	379
331	380
331	381
331	382
331	384
331	390
331	391
331	399
331	400
331	401
331	404
331	406
331	421
331	422
331	423
331	424
331	426
331	427
331	428
331	429
331	430
331	431
331	433
331	434
331	435
331	436
331	437
331	438
331	439
331	440
331	441
331	442
331	445
331	447
331	450
331	451
331	458
331	489
331	490
331	504
331	505
331	506
331	514
331	520
331	521
331	524
331	531
331	532
331	533
331	536
331	537
331	539
331	540
331	541
331	544
331	545
331	546
331	547
331	548
331	553
331	557
331	559
331	561
331	562
331	564
331	565
331	566
331	567
331	568
331	569
331	570
331	571
331	572
331	573
331	574
331	575
331	578
331	580
331	582
331	583
331	584
331	592
331	594
332	341
332	342
332	343
332	344
332	345
332	347
332	348
332	349
332	350
332	351
332	352
332	353
332	355
332	358
332	359
332	360
332	361
332	365
332	366
332	367
332	368
332	376
332	381
332	382
332	383
332	384
332	390
332	391
332	395
332	399
332	401
332	404
332	406
332	410
332	421
332	423
332	424
332	427
332	428
332	429
332	430
332	431
332	432
332	434
332	435
332	437
332	438
332	439
332	440
332	441
332	443
332	447
332	448
332	449
332	489
332	504
332	505
332	506
332	514
332	515
332	521
332	522
332	524
332	526
332	527
332	528
332	529
332	533
332	534
332	535
332	536
332	537
332	538
332	539
332	540
332	541
332	542
332	543
332	544
332	545
332	546
332	547
332	548
332	549
332	550
332	551
332	552
332	553
332	554
332	555
332	556
332	557
332	558
332	560
332	562
332	576
332	577
332	578
332	579
332	585
332	586
332	587
332	588
332	589
332	590
332	591
332	592
332	593
332	594
332	595
332	596
332	597
332	598
332	599
333	334
333	374
334	336
334	337
334	356
334	363
334	369
334	393
334	418
335	336
335	337
335	338
335	340
335	341
335	343
335	354
335	357
335	363
335	369
335	370
335	372
335	374
335	376
335	389
335	393
335	396
335	397
335	408
335	409
335	411
335	414
335	417
335	420
335	425
335	428
336	337
336	341
336	356
336	357
336	358
336	363
336	366
336	369
336	370
336	374
336	393
336	418
336	524
337	356
337	363
337	393
337	527
338	339
338	341
338	354
338	357
338	369
338	374
338	389
338	393
338	396
338	416
338	425
339	341
339	343
339	358
339	364
339	365
339	369
339	370
339	374
339	375
339	378
339	389
339	393
339	396
339	397
339	408
339	409
339	411
339	414
339	417
339	425
340	341
340	342
340	357
340	358
340	364
340	365
340	366
340	371
340	372
340	393
340	396
340	418
340	420
340	425
341	342
341	343
341	353
341	357
341	358
341	363
341	364
341	365
341	368
341	369
341	370
341	375
341	376
341	382
341	384
341	393
341	394
341	396
341	404
341	410
341	418
342	343
342	344
342	351
342	352
342	353
342	355
342	358
342	364
342	365
342	368
342	374
342	376
342	383
342	384
342	391
342	428
342	429
342	431
342	432
342	435
342	443
342	447
342	448
342	504
342	506
342	524
342	526
342	536
342	538
342	545
342	551
342	553
342	554
342	555
343	344
343	353
343	358
343	361
343	365
343	367
343	368
343	369
343	377
343	378
343	383
343	384
343	393
343	395
343	398
343	412
344	353
344	355
344	358
344	361
344	368
344	369
344	370
344	376
344	378
344	383
344	384
344	395
344	398
344	409
344	410
344	412
344	432
344	504
344	552
345	353
345	355
345	360
345	368
345	374
345	376
345	377
345	379
345	380
345	390
345	395
345	400
345	401
345	404
345	412
345	421
345	422
345	424
345	426
345	429
345	430
345	437
345	441
345	442
345	445
345	450
345	451
345	520
345	531
345	532
345	564
345	565
345	566
345	567
345	568
345	569
345	570
345	575
346	347
346	348
346	349
346	351
346	352
346	353
346	355
346	359
346	360
346	366
346	368
346	376
346	377
346	379
346	380
346	382
346	384
346	404
346	424
346	426
346	431
346	433
346	438
346	440
346	505
346	533
346	539
346	544
346	545
346	547
346	564
346	565
346	566
347	348
347	349
347	351
347	352
347	353
347	355
347	358
347	359
347	360
347	366
347	367
347	380
347	381
347	382
347	384
347	390
347	404
347	421
347	422
347	423
347	424
347	426
347	428
347	429
347	431
347	433
347	434
347	435
347	438
347	440
347	441
347	442
347	443
347	445
347	447
347	449
347	505
347	506
347	514
347	515
347	532
347	539
347	540
347	545
347	559
347	564
347	588
348	349
348	350
348	351
348	352
348	355
348	359
348	360
348	361
348	379
348	380
348	381
348	382
348	390
348	391
348	401
348	421
348	422
348	423
348	424
348	426
348	427
348	428
348	429
348	430
348	431
348	433
348	434
348	435
348	436
348	437
348	438
348	439
348	440
348	441
348	443
348	445
348	458
348	489
348	490
348	505
348	521
348	531
348	532
348	533
348	540
348	541
348	544
348	545
348	546
348	547
348	559
348	561
348	569
348	572
348	573
348	575
348	579
348	580
348	582
348	583
348	584
349	350
349	351
349	352
349	355
349	359
349	360
349	361
349	366
349	367
349	377
349	379
349	380
349	381
349	382
349	384
349	390
349	391
349	401
349	404
349	406
349	421
349	422
349	423
349	424
349	426
349	427
349	428
349	429
349	430
349	431
349	433
349	434
349	435
349	437
349	438
349	439
349	440
349	441
349	442
349	445
349	447
349	449
349	451
349	458
349	489
349	490
349	504
349	505
349	506
349	514
349	521
349	522
349	526
349	532
349	533
349	534
349	536
349	538
349	539
349	540
349	541
349	542
349	544
349	545
349	546
349	547
349	550
349	552
349	553
349	555
349	557
349	558
349	559
349	561
349	562
349	564
349	570
349	571
349	572
349	573
349	574
349	575
349	577
349	578
349	579
349	580
349	582
349	583
349	584
349	589
349	592
349	594
349	595
349	598
349	599
350	351
350	352
350	353
350	355
350	358
350	359
350	360
350	379
350	380
350	381
350	382
350	390
350	401
350	404
350	406
350	421
350	422
350	423
350	424
350	426
350	427
350	429
350	430
350	431
350	433
350	434
350	435
350	437
350	438
350	439
350	440
350	441
350	442
350	445
350	451
350	458
350	490
350	521
350	531
350	532
350	533
350	538
350	541
350	544
350	545
350	546
350	547
350	550
350	559
350	561
350	562
350	564
350	565
350	570
350	572
350	573
350	574
350	575
350	577
350	582
350	583
351	352
351	353
351	355
351	358
351	359
351	360
351	361
351	366
351	367
351	368
351	379
351	380
351	381
351	382
351	384
351	390
351	391
351	401
351	404
351	406
351	421
351	422
351	423
351	424
351	426
351	427
351	428
351	429
351	430
351	431
351	433
351	434
351	435
351	436
351	437
351	438
351	439
351	440
351	441
351	442
351	447
351	458
351	489
351	490
351	504
351	505
351	506
351	521
351	531
351	532
351	533
351	534
351	536
351	540
351	541
351	542
351	543
351	544
351	545
351	546
351	547
351	550
351	553
351	554
351	558
351	559
351	560
351	561
351	562
351	564
351	570
351	571
351	572
351	573
351	575
351	576
351	577
351	578
351	579
351	580
351	582
351	585
351	588
351	592
351	594
351	595
352	353
352	355
352	359
352	360
352	361
352	366
352	367
352	368
352	379
352	380
352	381
352	382
352	384
352	390
352	391
352	401
352	406
352	421
352	422
352	423
352	424
352	426
352	427
352	428
352	429
352	431
352	432
352	433
352	434
352	435
352	437
352	438
352	439
352	440
352	441
352	442
352	447
352	449
352	458
352	489
352	490
352	504
352	505
352	506
352	514
352	521
352	522
352	524
352	526
352	532
352	533
352	534
352	536
352	537
352	538
352	539
352	540
352	541
352	542
352	543
352	544
352	545
352	546
352	547
352	548
352	549
352	550
352	552
352	553
352	554
352	555
352	556
352	557
352	559
352	560
352	561
352	562
352	564
352	565
352	573
352	575
352	577
352	578
352	579
352	585
352	586
352	587
352	588
352	589
352	590
352	591
352	592
352	593
352	594
352	595
352	596
352	597
352	598
353	354
353	355
353	358
353	359
353	360
353	364
353	365
353	366
353	368
353	377
353	383
353	384
353	391
353	396
353	401
353	403
353	421
353	423
353	424
353	426
353	428
353	429
353	430
353	431
353	432
353	435
353	438
353	443
353	448
353	490
353	504
353	506
353	514
353	515
353	521
353	524
353	525
353	526
353	527
353	528
353	529
353	534
353	535
353	536
353	541
353	542
353	543
353	545
353	548
353	551
353	552
353	554
353	555
353	556
353	558
353	570
353	572
353	585
353	591
354	355
354	358
354	369
354	371
354	374
354	384
354	393
354	538
354	542
354	543
354	548
354	550
354	556
355	358
355	359
355	360
355	368
355	376
355	379
355	380
355	383
355	384
355	390
355	391
355	395
355	396
355	401
355	421
355	423
355	424
355	426
355	428
355	429
355	431
355	432
355	434
355	435
355	437
355	438
355	439
355	440
355	443
355	449
355	504
355	505
355	506
355	514
355	515
355	524
355	526
355	532
355	533
355	534
355	536
355	537
355	538
355	539
355	540
355	541
355	542
355	543
355	544
355	545
355	546
355	548
355	549
355	550
355	551
355	552
355	553
355	554
355	555
355	556
355	562
355	576
355	578
355	579
355	582
355	587
355	591
355	593
355	608
356	363
356	393
357	358
357	364
357	369
357	371
357	372
357	374
357	389
357	393
357	418
357	420
357	425
358	359
358	364
358	365
358	366
358	368
358	374
358	375
358	376
358	383
358	384
358	391
358	395
358	396
358	400
358	428
358	429
358	431
358	432
358	435
358	448
358	504
358	505
358	506
358	524
358	536
358	538
358	539
358	540
358	542
358	545
358	548
359	360
359	361
359	367
359	377
359	379
359	380
359	381
359	382
359	383
359	384
359	390
359	391
359	401
359	404
359	406
359	421
359	422
359	423
359	424
359	426
359	427
359	428
359	429
359	430
359	431
359	433
359	434
359	435
359	436
359	437
359	438
359	439
359	440
359	441
359	442
359	447
359	458
359	489
359	490
359	504
359	505
359	506
359	514
359	515
359	521
359	522
359	524
359	526
359	532
359	533
359	534
359	536
359	538
359	539
359	540
359	541
359	542
359	543
359	544
359	545
359	546
359	547
359	548
359	550
359	553
359	554
359	555
359	556
359	557
359	559
359	561
359	562
359	564
359	567
359	569
359	570
359	571
359	572
359	573
359	574
359	575
359	576
359	577
359	578
359	579
359	582
359	584
359	585
359	588
359	589
359	594
359	595
360	361
360	366
360	379
360	380
360	381
360	382
360	384
360	390
360	391
360	401
360	404
360	406
360	421
360	422
360	423
360	424
360	426
360	427
360	428
360	429
360	430
360	431
360	433
360	434
360	435
360	437
360	438
360	439
360	440
360	441
360	447
360	449
360	451
360	458
360	489
360	490
360	504
360	505
360	506
360	514
360	515
360	520
360	521
360	524
360	526
360	531
360	532
360	533
360	534
360	536
360	537
360	538
360	539
360	540
360	541
360	542
360	544
360	545
360	546
360	547
360	548
360	552
360	553
360	554
360	555
360	557
360	559
360	560
360	561
360	562
360	572
360	573
360	575
360	576
360	577
360	578
360	579
360	588
360	589
360	591
360	592
360	593
360	594
360	595
360	596
360	598
360	599
361	367
361	368
361	376
361	381
361	382
361	390
361	399
361	426
361	431
361	433
361	435
361	437
361	438
361	447
361	489
361	505
361	522
361	537
361	544
361	547
361	570
361	575
361	576
361	587
362	363
362	369
362	370
362	378
362	393
362	394
362	396
362	397
362	407
362	408
362	409
362	410
362	411
362	416
362	417
363	369
363	370
363	371
363	372
363	374
363	393
363	418
363	525
364	365
364	368
364	369
364	372
364	384
364	389
364	393
364	394
364	396
364	420
364	425
365	378
365	384
365	396
365	428
365	429
365	432
365	504
365	505
366	368
366	384
366	422
366	428
366	429
366	431
366	432
366	435
366	438
366	440
366	442
366	443
366	505
366	524
366	527
366	545
367	381
367	382
367	399
367	429
367	431
367	432
367	435
367	447
367	489
367	505
367	522
367	537
367	576
367	587
368	378
368	382
368	383
368	384
368	391
368	399
368	412
368	428
368	429
368	431
368	432
368	435
368	443
368	448
368	504
368	505
368	506
368	514
368	515
368	524
368	526
368	527
368	528
368	529
368	535
368	536
368	538
368	539
368	540
368	542
368	544
368	545
368	548
368	551
368	552
368	553
368	555
368	556
368	557
368	562
368	579
368	585
368	589
368	600
369	370
369	371
369	372
369	374
369	376
369	378
369	393
369	394
369	395
369	396
369	397
369	408
369	409
369	410
369	411
369	412
369	416
369	417
369	420
369	425
370	374
370	378
370	393
370	394
370	396
370	397
370	407
370	408
370	409
370	410
370	411
370	414
370	416
370	417
371	372
371	389
371	393
371	418
371	420
371	425
372	389
372	418
372	420
373	385
373	386
373	387
373	388
373	392
373	402
373	403
373	405
373	413
373	415
373	419
373	446
373	456
373	459
373	460
373	461
373	462
373	463
373	464
373	465
373	466
373	467
373	468
373	469
373	471
373	472
373	473
373	475
373	476
373	477
373	478
373	479
373	480
373	481
373	482
373	483
373	484
373	485
373	486
373	487
373	488
373	491
373	492
373	495
373	496
373	497
373	498
373	499
373	501
373	502
373	503
373	507
373	508
373	509
373	516
373	517
373	518
373	519
373	523
373	613
373	614
373	615
373	621
373	622
373	630
373	632
373	633
373	634
373	636
373	640
373	641
373	642
373	643
373	644
373	646
373	647
373	648
373	649
373	650
373	651
373	652
373	653
373	654
373	655
373	656
373	657
373	660
373	666
373	672
373	687
373	691
373	695
373	696
373	699
373	701
373	702
373	704
373	707
373	708
373	711
373	712
373	713
373	714
373	715
373	716
373	720
373	723
373	726
373	727
373	730
373	731
373	732
373	739
373	740
373	741
373	742
373	746
373	764
373	766
373	785
373	786
373	793
373	794
373	795
373	800
373	801
373	809
373	814
373	852
373	871
373	877
374	389
374	393
374	396
374	397
374	420
374	425
375	378
375	384
375	393
375	396
375	397
375	409
375	410
375	412
375	414
375	417
376	377
376	379
376	380
376	395
376	398
376	399
376	400
376	401
376	404
376	412
376	421
376	429
376	441
376	445
376	450
376	451
376	520
376	531
376	532
376	564
376	565
376	566
376	567
377	379
377	380
377	390
377	400
377	401
377	404
377	421
377	424
377	426
377	430
377	441
377	442
377	445
377	450
377	451
377	520
377	532
377	561
377	564
377	565
377	566
377	567
377	569
377	570
378	393
378	394
378	396
378	397
378	408
378	409
378	410
378	412
378	414
378	416
378	417
379	380
379	390
379	401
379	404
379	421
379	422
379	423
379	424
379	426
379	430
379	433
379	437
379	438
379	441
379	442
379	445
379	450
379	451
379	520
379	531
379	532
379	533
379	544
379	546
379	559
379	561
379	562
379	564
379	565
379	566
379	567
379	568
379	569
379	570
379	571
379	572
379	573
379	574
379	575
379	582
379	584
380	382
380	384
380	390
380	395
380	401
380	404
380	421
380	422
380	423
380	424
380	426
380	429
380	430
380	431
380	433
380	436
380	437
380	438
380	439
380	440
380	441
380	442
380	445
380	450
380	451
380	458
380	490
380	520
380	521
380	531
380	532
380	533
380	544
380	546
380	547
380	559
380	561
380	564
380	565
380	566
380	567
380	568
380	569
380	570
380	571
380	572
380	573
380	574
380	575
380	580
380	582
380	583
380	584
381	382
381	383
381	390
381	391
381	406
381	423
381	424
381	427
381	429
381	430
381	431
381	432
381	434
381	435
381	438
381	439
381	440
381	443
381	447
381	504
381	505
381	506
381	514
381	521
381	526
381	533
381	534
381	536
381	537
381	539
381	540
381	541
381	544
381	545
381	547
381	548
381	553
381	557
381	560
381	562
381	573
381	576
381	578
381	579
381	587
381	592
381	594
381	595
381	596
381	598
382	391
382	406
382	422
382	423
382	424
382	427
382	429
382	431
382	434
382	435
382	438
382	439
382	440
382	443
382	447
382	449
382	489
382	504
382	505
382	506
382	514
382	521
382	522
382	524
382	526
382	533
382	534
382	535
382	536
382	537
382	538
382	539
382	540
382	541
382	542
382	544
382	545
382	546
382	547
382	548
382	550
382	552
382	553
382	554
382	555
382	556
382	557
382	559
382	560
382	562
382	576
382	577
382	578
382	579
382	585
382	586
382	587
382	588
382	589
382	592
382	593
382	594
382	595
382	596
382	600
383	384
383	391
383	428
383	429
383	432
383	435
383	438
383	443
383	448
383	449
383	504
383	505
383	506
383	515
383	524
383	526
383	527
383	528
383	529
383	534
383	535
383	536
383	538
383	539
383	541
383	542
383	543
383	545
383	548
383	550
383	551
383	552
383	553
383	554
383	555
383	556
383	558
383	560
383	585
383	591
383	597
383	600
384	391
384	412
384	428
384	429
384	431
384	432
384	434
384	435
384	438
384	440
384	443
384	448
384	449
384	504
384	505
384	506
384	514
384	515
384	522
384	524
384	525
384	526
384	527
384	528
384	529
384	534
384	535
384	536
384	537
384	538
384	539
384	540
384	541
384	542
384	545
384	547
384	548
384	549
384	550
384	551
384	552
384	553
384	554
384	555
384	556
384	558
384	576
384	579
384	585
384	587
384	591
384	595
384	600
384	608
385	386
385	387
385	388
385	392
385	402
385	403
385	413
385	419
385	456
385	461
385	462
385	463
385	464
385	467
385	468
385	469
385	470
385	471
385	472
385	473
385	475
385	476
385	478
385	479
385	481
385	482
385	483
385	485
385	491
385	492
385	493
385	495
385	496
385	497
385	501
385	502
385	507
385	509
385	510
385	511
385	512
385	516
385	518
385	523
385	563
385	601
385	613
385	614
385	620
385	621
385	622
385	623
385	624
385	630
385	632
385	633
385	634
385	640
385	641
385	642
385	643
385	644
385	645
385	646
385	647
385	648
385	649
385	650
385	651
385	652
385	653
385	654
385	655
385	656
385	657
385	658
385	659
385	660
385	662
385	663
385	672
385	683
385	684
385	685
385	686
385	687
385	693
385	694
385	695
385	696
385	697
385	698
385	699
385	702
385	704
385	706
385	707
385	708
385	709
385	711
385	713
385	714
385	715
385	716
385	717
385	718
385	719
385	720
385	721
385	722
385	723
385	725
385	726
385	727
385	729
385	730
385	731
385	732
385	733
385	734
385	736
385	737
385	738
385	739
385	741
385	743
385	744
385	747
385	748
385	749
385	751
385	752
385	753
385	759
385	767
385	768
385	769
385	773
385	774
385	775
385	779
385	782
385	788
385	794
385	800
385	803
385	805
385	806
385	808
385	810
385	814
385	815
385	827
385	841
385	874
385	878
386	387
386	388
386	392
386	402
386	403
386	405
386	413
386	419
386	444
386	452
386	453
386	454
386	455
386	456
386	460
386	461
386	462
386	464
386	465
386	466
386	467
386	468
386	469
386	470
386	471
386	472
386	473
386	474
386	475
386	476
386	477
386	478
386	479
386	480
386	481
386	482
386	483
386	484
386	485
386	486
386	487
386	488
386	491
386	492
386	493
386	494
386	495
386	496
386	497
386	498
386	499
386	500
386	501
386	502
386	503
386	507
386	508
386	509
386	510
386	511
386	512
386	513
386	516
386	517
386	518
386	519
386	523
386	530
386	563
386	601
386	603
386	613
386	614
386	615
386	617
386	619
386	620
386	621
386	622
386	623
386	624
386	627
386	629
386	630
386	631
386	632
386	633
386	634
386	636
386	640
386	642
386	643
386	644
386	645
386	646
386	647
386	648
386	649
386	650
386	651
386	652
386	653
386	654
386	655
386	656
386	657
386	658
386	659
386	660
386	661
386	662
386	663
386	664
386	666
386	668
386	671
386	672
386	674
386	678
386	679
386	680
386	681
386	683
386	684
386	685
386	686
386	687
386	691
386	693
386	694
386	695
386	696
386	697
386	698
386	699
386	700
386	701
386	702
386	704
386	705
386	706
386	707
386	708
386	709
386	711
386	712
386	713
386	714
386	715
386	716
386	717
386	718
386	719
386	720
386	721
386	722
386	723
386	724
386	725
386	726
386	727
386	728
386	729
386	730
386	731
386	732
386	733
386	734
386	735
386	736
386	737
386	738
386	739
386	740
386	741
386	742
386	743
386	744
386	745
386	747
386	748
386	749
386	751
386	752
386	753
386	754
386	756
386	757
386	758
386	759
386	760
386	761
386	763
386	764
386	765
386	766
386	767
386	768
386	769
386	771
386	772
386	773
386	774
386	775
386	776
386	779
386	780
386	782
386	783
386	784
386	785
386	786
386	787
386	788
386	792
386	793
386	794
386	795
386	796
386	799
386	800
386	801
386	802
386	803
386	804
386	805
386	806
386	807
386	808
386	809
386	810
386	811
386	812
386	813
386	814
386	815
386	820
386	821
386	827
386	831
386	832
386	837
386	838
386	841
386	842
386	844
386	845
386	846
386	847
386	848
386	853
386	865
386	869
386	872
386	873
386	878
386	879
386	883
386	884
386	885
386	887
386	888
386	890
386	893
386	898
386	899
386	900
386	905
386	907
386	910
386	916
386	920
386	921
386	922
387	388
387	392
387	402
387	403
387	405
387	413
387	415
387	419
387	446
387	459
387	460
387	461
387	462
387	463
387	464
387	465
387	466
387	467
387	468
387	469
387	471
387	472
387	473
387	475
387	476
387	477
387	478
387	480
387	481
387	482
387	483
387	484
387	485
387	486
387	487
387	488
387	491
387	492
387	495
387	496
387	497
387	498
387	500
387	501
387	503
387	507
387	508
387	509
387	511
387	512
387	516
387	517
387	518
387	523
387	530
387	563
387	613
387	614
387	620
387	621
387	631
387	632
387	634
387	636
387	637
387	640
387	642
387	643
387	644
387	646
387	648
387	651
387	652
387	653
387	654
387	655
387	656
387	657
387	658
387	659
387	660
387	662
387	672
387	674
387	687
387	695
387	696
387	697
387	699
387	702
387	704
387	712
387	713
387	714
387	715
387	716
387	717
387	718
387	720
387	722
387	723
387	726
387	727
387	730
387	731
387	732
387	739
387	740
387	741
387	742
387	744
387	748
387	749
387	764
387	765
387	767
387	768
387	774
387	785
387	786
387	787
387	792
387	793
387	794
387	808
387	814
387	830
387	877
388	392
388	402
388	403
388	413
388	415
388	419
388	444
388	446
388	453
388	454
388	455
388	456
388	459
388	460
388	461
388	462
388	463
388	464
388	465
388	466
388	467
388	468
388	469
388	470
388	471
388	472
388	473
388	475
388	476
388	477
388	478
388	479
388	480
388	481
388	482
388	483
388	484
388	485
388	486
388	487
388	488
388	491
388	492
388	493
388	495
388	496
388	497
388	498
388	499
388	500
388	501
388	502
388	503
388	507
388	508
388	509
388	511
388	513
388	516
388	517
388	518
388	523
388	530
388	563
388	601
388	613
388	614
388	620
388	621
388	622
388	626
388	632
388	633
388	634
388	636
388	640
388	642
388	643
388	644
388	645
388	646
388	647
388	648
388	650
388	651
388	652
388	653
388	654
388	655
388	656
388	657
388	658
388	659
388	660
388	662
388	672
388	684
388	685
388	686
388	687
388	696
388	697
388	698
388	699
388	700
388	702
388	704
388	705
388	707
388	708
388	709
388	712
388	713
388	714
388	715
388	716
388	717
388	718
388	719
388	720
388	722
388	723
388	725
388	726
388	727
388	730
388	731
388	732
388	734
388	737
388	739
388	740
388	741
388	742
388	743
388	744
388	748
388	749
388	751
388	757
388	759
388	763
388	764
388	765
388	766
388	767
388	768
388	773
388	785
388	786
388	787
388	792
388	793
388	794
388	795
388	796
388	800
388	801
388	803
388	805
388	806
388	807
388	808
388	809
388	810
388	818
388	830
388	831
388	832
388	834
388	837
388	841
388	873
388	877
388	887
388	890
388	893
388	914
389	420
389	425
390	391
390	401
390	404
390	421
390	422
390	423
390	424
390	426
390	428
390	429
390	430
390	431
390	433
390	435
390	436
390	437
390	438
390	439
390	441
390	442
390	445
390	450
390	451
390	458
390	490
390	520
390	521
390	531
390	532
390	533
390	544
390	546
390	547
390	559
390	561
390	562
390	564
390	565
390	566
390	567
390	569
390	570
390	571
390	572
390	573
390	574
390	575
390	580
390	581
390	582
390	583
390	584
390	594
391	406
391	423
391	424
391	428
391	429
391	431
391	432
391	434
391	435
391	438
391	439
391	440
391	443
391	447
391	449
391	504
391	505
391	506
391	514
391	515
391	524
391	526
391	527
391	528
391	529
391	534
391	535
391	536
391	537
391	538
391	539
391	540
391	541
391	542
391	543
391	544
391	545
391	547
391	548
391	549
391	550
391	552
391	553
391	554
391	555
391	556
391	557
391	558
391	560
391	562
391	575
391	576
391	577
391	578
391	579
391	585
391	586
391	587
391	588
391	589
391	590
391	591
391	592
391	593
391	594
391	595
391	596
391	597
391	598
391	599
391	600
391	608
392	403
392	415
392	419
392	446
392	452
392	453
392	455
392	456
392	459
392	462
392	463
392	464
392	465
392	466
392	467
392	471
392	474
392	475
392	476
392	477
392	478
392	482
392	483
392	485
392	486
392	487
392	488
392	491
392	492
392	493
392	497
392	498
392	499
392	500
392	501
392	503
392	507
392	508
392	509
392	510
392	511
392	512
392	513
392	516
392	517
392	518
392	523
392	563
392	601
392	613
392	614
392	615
392	616
392	618
392	619
392	620
392	621
392	622
392	624
392	633
392	634
392	636
392	642
392	646
392	651
392	652
392	654
392	656
392	657
392	659
392	660
392	687
392	696
392	697
392	702
392	704
392	705
392	706
392	707
392	709
392	714
392	715
392	716
392	717
392	720
392	723
392	724
392	725
392	726
392	727
392	728
392	729
392	733
392	734
392	737
392	738
392	740
392	747
392	750
392	751
392	752
392	753
392	754
392	757
392	769
392	771
392	772
392	773
392	780
392	786
392	788
392	794
392	796
392	797
392	802
392	810
392	811
392	821
392	822
392	823
392	824
392	831
392	835
392	836
392	837
392	839
392	840
392	860
392	873
392	878
392	884
392	886
392	888
393	394
393	395
393	396
393	397
393	398
393	407
393	408
393	409
393	410
393	411
393	412
393	414
393	416
393	417
393	425
393	446
394	396
394	397
394	408
394	409
394	410
394	414
394	416
394	417
394	452
395	398
395	399
395	400
395	404
395	409
395	412
395	448
395	564
396	397
396	407
396	408
396	409
396	410
396	411
396	414
396	416
396	417
397	407
397	408
397	409
397	410
397	411
397	414
397	416
397	417
397	457
398	400
398	412
399	400
399	487
400	404
400	412
400	426
400	520
401	404
401	406
401	421
401	422
401	423
401	424
401	426
401	430
401	433
401	436
401	437
401	438
401	441
401	442
401	445
401	450
401	451
401	458
401	490
401	520
401	521
401	531
401	532
401	533
401	544
401	546
401	559
401	561
401	564
401	565
401	566
401	567
401	568
401	569
401	570
401	571
401	572
401	573
401	574
401	575
401	582
401	583
401	584
402	403
402	405
402	413
402	415
402	419
402	444
402	446
402	453
402	455
402	456
402	460
402	461
402	462
402	464
402	466
402	467
402	468
402	469
402	470
402	471
402	472
402	473
402	475
402	476
402	478
402	479
402	480
402	481
402	482
402	483
402	484
402	485
402	486
402	487
402	488
402	491
402	492
402	493
402	494
402	495
402	496
402	497
402	498
402	499
402	500
402	501
402	502
402	503
402	507
402	508
402	509
402	510
402	511
402	512
402	513
402	516
402	517
402	518
402	519
402	523
402	530
402	563
402	601
402	603
402	613
402	614
402	615
402	616
402	617
402	618
402	619
402	620
402	621
402	622
402	623
402	624
402	625
402	626
402	627
402	629
402	630
402	631
402	632
402	633
402	634
402	636
402	638
402	639
402	640
402	641
402	642
402	643
402	644
402	645
402	646
402	647
402	648
402	649
402	650
402	651
402	652
402	653
402	654
402	655
402	656
402	657
402	658
402	659
402	660
402	661
402	662
402	663
402	664
402	666
402	669
402	671
402	672
402	674
402	680
402	681
402	682
402	683
402	684
402	685
402	686
402	687
402	690
402	692
402	693
402	694
402	695
402	696
402	697
402	698
402	699
402	700
402	701
402	702
402	703
402	704
402	705
402	706
402	707
402	708
402	709
402	710
402	711
402	712
402	713
402	714
402	715
402	716
402	717
402	718
402	719
402	720
402	721
402	722
402	723
402	724
402	725
402	726
402	727
402	728
402	729
402	730
402	731
402	732
402	733
402	734
402	735
402	736
402	737
402	738
402	739
402	740
402	741
402	742
402	743
402	744
402	745
402	747
402	748
402	749
402	751
402	752
402	753
402	756
402	757
402	758
402	759
402	760
402	761
402	763
402	764
402	765
402	766
402	767
402	768
402	769
402	771
402	772
402	773
402	774
402	775
402	776
402	777
402	779
402	782
402	783
402	784
402	785
402	786
402	787
402	788
402	789
402	791
402	792
402	793
402	794
402	795
402	798
402	799
402	800
402	801
402	803
402	804
402	805
402	806
402	808
402	809
402	810
402	811
402	812
402	814
402	815
402	816
402	818
402	820
402	821
402	825
402	826
402	827
402	828
402	830
402	831
402	832
402	834
402	838
402	839
402	842
402	843
402	845
402	846
402	847
402	848
402	849
402	850
402	852
402	856
402	857
402	860
402	863
402	865
402	868
402	869
402	873
402	874
402	875
402	877
402	882
402	885
402	887
402	888
402	893
402	897
402	898
402	899
402	900
402	901
402	902
402	903
402	904
402	905
402	906
402	907
402	908
402	909
402	910
403	405
403	413
403	415
403	419
403	446
403	455
403	459
403	460
403	461
403	462
403	463
403	464
403	465
403	466
403	467
403	468
403	471
403	473
403	474
403	475
403	476
403	478
403	480
403	481
403	483
403	485
403	486
403	487
403	488
403	491
403	492
403	493
403	494
403	495
403	496
403	497
403	498
403	499
403	500
403	501
403	502
403	503
403	507
403	509
403	510
403	511
403	512
403	513
403	516
403	517
403	518
403	519
403	523
403	563
403	601
403	603
403	605
403	606
403	607
403	613
403	615
403	616
403	617
403	618
403	619
403	620
403	621
403	622
403	623
403	624
403	625
403	626
403	627
403	632
403	633
403	634
403	636
403	638
403	639
403	640
403	645
403	648
403	649
403	651
403	652
403	653
403	654
403	655
403	656
403	657
403	658
403	659
403	660
403	661
403	662
403	663
403	664
403	669
403	672
403	673
403	674
403	681
403	682
403	685
403	686
403	688
403	689
403	690
403	693
403	696
403	697
403	698
403	699
403	702
403	704
403	705
403	706
403	707
403	708
403	709
403	715
403	717
403	718
403	720
403	722
403	724
403	725
403	726
403	727
403	729
403	730
403	731
403	732
403	733
403	734
403	735
403	736
403	737
403	738
403	739
403	746
403	748
403	749
403	751
403	752
403	753
403	754
403	755
403	756
403	758
403	759
403	760
403	761
403	762
403	763
403	764
403	767
403	768
403	771
403	772
403	773
403	775
403	776
403	777
403	778
403	779
403	781
403	782
403	783
403	784
403	785
403	790
403	791
403	797
403	799
403	800
403	804
403	806
403	808
403	810
403	811
403	812
403	813
403	814
403	815
403	816
403	817
403	818
403	819
403	820
403	821
403	822
403	823
403	824
403	825
403	826
403	827
403	828
403	829
403	832
403	833
403	834
403	837
403	839
403	840
403	841
403	842
403	843
403	844
403	845
403	846
403	847
403	848
403	849
403	850
403	851
403	852
403	853
403	854
403	855
403	856
403	857
403	858
403	859
403	860
403	861
403	862
403	863
403	865
403	866
403	867
403	868
403	869
403	870
403	875
403	876
403	877
403	881
403	882
403	883
403	885
403	891
403	892
403	897
403	898
403	899
403	900
403	902
403	903
403	905
403	907
403	908
403	909
403	910
403	912
403	913
403	914
403	915
403	916
403	917
403	919
403	920
403	921
403	922
403	923
403	929
403	932
403	933
403	934
403	935
403	936
403	937
403	938
403	939
403	940
403	941
403	942
403	943
403	944
403	945
403	946
403	947
403	948
403	949
403	950
403	951
403	953
403	954
403	955
403	956
403	957
403	958
403	959
403	960
403	961
403	962
403	963
403	964
403	965
403	966
403	967
403	968
403	969
403	970
403	971
403	972
403	973
403	974
403	975
403	976
403	977
403	978
403	979
403	980
403	981
403	982
403	983
403	984
403	985
403	986
403	987
403	988
403	989
403	990
403	991
403	992
403	997
403	1001
403	1002
403	1003
403	1004
403	1005
403	1006
403	1007
403	1008
403	1009
403	1010
404	412
404	421
404	422
404	426
404	430
404	431
404	433
404	437
404	441
404	442
404	445
404	450
404	451
404	505
404	520
404	531
404	532
404	533
404	546
404	561
404	564
404	565
404	566
404	567
404	568
404	569
404	570
404	571
404	572
404	574
404	575
404	582
405	413
405	444
405	460
405	461
405	467
405	468
405	469
405	470
405	471
405	472
405	473
405	475
405	476
405	479
405	480
405	481
405	482
405	483
405	485
405	491
405	493
405	495
405	496
405	499
405	500
405	501
405	508
405	510
405	511
405	613
405	619
405	624
405	630
405	631
405	632
405	633
405	634
405	636
405	638
405	639
405	640
405	641
405	642
405	643
405	644
405	645
405	646
405	647
405	648
405	649
405	650
405	651
405	652
405	653
405	654
405	655
405	656
405	659
405	662
405	663
405	669
405	671
405	672
405	674
405	675
405	676
405	679
405	681
405	682
405	683
405	684
405	685
405	686
405	687
405	690
405	692
405	693
405	694
405	700
405	701
405	702
405	703
405	706
405	710
405	711
405	720
405	731
405	732
405	733
405	737
405	738
405	739
405	763
405	764
405	785
405	806
405	809
405	817
406	421
406	423
406	427
406	428
406	429
406	431
406	434
406	435
406	438
406	439
406	440
406	447
406	504
406	505
406	506
406	514
406	526
406	534
406	536
406	539
406	540
406	541
406	542
406	544
406	545
406	547
406	548
406	550
406	552
406	553
406	554
406	556
406	557
406	560
406	562
406	577
406	578
406	579
406	585
406	586
406	588
406	589
406	592
406	594
406	595
406	596
406	598
407	409
408	409
408	410
408	411
408	414
408	416
408	417
408	455
409	410
409	411
409	414
409	416
409	417
410	411
410	414
410	416
410	417
411	414
411	416
411	417
411	452
413	419
413	444
413	446
413	456
413	459
413	460
413	461
413	462
413	464
413	466
413	467
413	468
413	469
413	470
413	471
413	472
413	473
413	475
413	476
413	478
413	479
413	480
413	481
413	482
413	483
413	485
413	486
413	488
413	491
413	492
413	493
413	494
413	495
413	496
413	497
413	498
413	499
413	500
413	501
413	502
413	503
413	507
413	508
413	509
413	510
413	511
413	513
413	516
413	518
413	519
413	523
413	563
413	613
413	614
413	615
413	616
413	618
413	619
413	620
413	621
413	622
413	623
413	624
413	625
413	626
413	627
413	628
413	629
413	630
413	631
413	632
413	633
413	634
413	636
413	637
413	638
413	639
413	640
413	641
413	642
413	643
413	644
413	645
413	646
413	647
413	648
413	649
413	650
413	651
413	652
413	653
413	654
413	655
413	656
413	657
413	658
413	659
413	660
413	661
413	662
413	663
413	664
413	665
413	666
413	668
413	669
413	671
413	672
413	673
413	674
413	675
413	681
413	682
413	683
413	684
413	685
413	686
413	687
413	688
413	690
413	692
413	693
413	694
413	695
413	696
413	697
413	698
413	699
413	700
413	701
413	702
413	703
413	704
413	705
413	706
413	707
413	708
413	711
413	712
413	713
413	714
413	715
413	716
413	717
413	718
413	719
413	722
413	723
413	724
413	725
413	727
413	728
413	729
413	730
413	731
413	732
413	733
413	734
413	735
413	737
413	738
413	739
413	741
413	743
413	744
413	747
413	748
413	752
413	753
413	760
413	761
413	762
413	763
413	764
413	766
413	767
413	768
413	770
413	773
413	776
413	782
413	785
413	791
413	797
413	800
413	804
413	806
413	808
413	809
413	810
413	811
413	813
413	814
413	817
413	818
413	821
413	829
413	833
413	834
413	836
413	837
413	842
413	848
413	850
413	856
413	857
413	858
413	863
413	871
413	884
413	916
414	416
414	417
414	456
414	530
415	419
415	446
415	459
415	460
415	461
415	462
415	463
415	464
415	465
415	466
415	467
415	468
415	469
415	475
415	476
415	477
415	478
415	481
415	482
415	483
415	485
415	486
415	487
415	488
415	491
415	492
415	493
415	495
415	496
415	497
415	498
415	499
415	500
415	501
415	502
415	503
415	507
415	509
415	510
415	511
415	512
415	513
415	516
415	517
415	518
415	519
415	523
415	563
415	603
415	613
415	614
415	615
415	616
415	617
415	619
415	620
415	621
415	622
415	623
415	625
415	632
415	633
415	634
415	636
415	651
415	654
415	656
415	657
415	660
415	661
415	664
415	672
415	674
415	684
415	686
415	697
415	698
415	699
415	701
415	706
415	707
415	708
415	714
415	715
415	721
415	722
415	724
415	725
415	726
415	727
415	728
415	729
415	732
415	734
415	735
415	736
415	738
415	747
415	752
415	753
415	754
415	755
415	756
415	758
415	759
415	760
415	761
415	762
415	772
415	773
415	774
415	775
415	776
415	778
415	779
415	782
415	783
415	788
415	791
415	798
415	804
415	812
415	813
415	814
415	815
415	816
415	821
415	825
415	827
415	828
415	829
415	837
415	841
415	843
415	845
415	847
415	848
415	855
415	857
415	867
415	869
415	870
415	872
415	874
415	876
415	877
415	882
415	883
415	914
415	938
416	417
416	454
417	453
418	420
419	446
419	454
419	459
419	460
419	461
419	462
419	463
419	464
419	465
419	466
419	467
419	475
419	476
419	477
419	478
419	479
419	481
419	485
419	486
419	487
419	488
419	491
419	492
419	493
419	495
419	496
419	497
419	498
419	499
419	502
419	507
419	509
419	511
419	516
419	517
419	518
419	523
419	613
419	614
419	619
419	621
419	623
419	624
419	636
419	640
419	644
419	648
419	651
419	652
419	654
419	655
419	656
419	657
419	658
419	659
419	660
419	662
419	672
419	673
419	696
419	698
419	699
419	704
419	709
419	714
419	715
419	716
419	719
419	720
419	721
419	722
419	723
419	724
419	732
419	734
419	737
419	741
419	742
419	743
419	744
419	745
419	747
419	748
419	749
419	753
419	763
419	765
419	766
419	767
419	786
419	787
419	792
419	793
419	794
419	795
419	800
419	802
419	803
419	805
419	808
419	810
419	826
419	831
419	837
419	877
419	890
420	425
421	422
421	423
421	424
421	426
421	428
421	430
421	431
421	433
421	436
421	437
421	438
421	439
421	440
421	441
421	442
421	445
421	447
421	450
421	451
421	458
421	490
421	520
421	521
421	531
421	532
421	533
421	544
421	546
421	559
421	561
421	564
421	565
421	566
421	567
421	568
421	569
421	570
421	571
421	572
421	573
421	574
421	575
421	580
421	582
421	583
421	584
422	423
422	424
422	426
422	428
422	430
422	431
422	433
422	435
422	436
422	437
422	438
422	439
422	440
422	441
422	442
422	445
422	451
422	458
422	490
422	520
422	521
422	531
422	532
422	533
422	539
422	544
422	545
422	546
422	547
422	559
422	561
422	564
422	566
422	567
422	569
422	570
422	571
422	572
422	573
422	574
422	575
422	578
422	580
422	582
422	583
422	584
423	424
423	426
423	427
423	428
423	429
423	430
423	431
423	433
423	434
423	435
423	436
423	437
423	438
423	439
423	440
423	441
423	442
423	445
423	447
423	451
423	458
423	490
423	504
423	506
423	520
423	521
423	531
423	532
423	533
423	539
423	540
423	544
423	545
423	546
423	547
423	559
423	561
423	564
423	566
423	569
423	571
423	572
423	573
423	574
423	575
423	578
423	580
423	582
423	583
423	584
423	592
423	594
424	426
424	427
424	429
424	430
424	431
424	433
424	434
424	435
424	437
424	438
424	439
424	440
424	441
424	442
424	447
424	458
424	490
424	504
424	505
424	514
424	521
424	532
424	533
424	542
424	544
424	545
424	546
424	547
424	559
424	561
424	562
424	564
424	569
424	570
424	572
424	573
424	574
424	575
424	578
424	580
424	582
424	583
424	584
424	592
426	427
426	428
426	430
426	431
426	433
426	436
426	437
426	438
426	439
426	440
426	441
426	442
426	445
426	450
426	451
426	458
426	489
426	490
426	505
426	520
426	521
426	531
426	532
426	533
426	544
426	546
426	547
426	559
426	561
426	564
426	565
426	566
426	567
426	569
426	570
426	571
426	572
426	573
426	574
426	575
426	580
426	582
426	583
427	429
427	431
427	434
427	435
427	438
427	439
427	440
427	505
427	506
427	533
427	536
427	537
427	540
427	541
427	542
427	544
427	545
427	547
427	553
427	554
427	578
427	579
427	592
427	598
428	429
428	431
428	432
428	433
428	434
428	435
428	438
428	440
428	443
428	447
428	448
428	449
428	504
428	505
428	506
428	514
428	515
428	521
428	524
428	525
428	526
428	527
428	528
428	529
428	533
428	534
428	535
428	536
428	537
428	538
428	539
428	540
428	541
428	542
428	543
428	544
428	545
428	548
428	549
428	550
428	551
428	552
428	553
428	554
428	555
428	556
428	558
428	562
428	572
428	576
428	578
428	579
428	585
428	586
428	587
428	591
428	592
428	593
428	597
428	599
428	600
428	608
428	611
428	612
429	431
429	432
429	434
429	435
429	437
429	438
429	439
429	440
429	443
429	447
429	449
429	489
429	504
429	505
429	506
429	514
429	515
429	521
429	524
429	526
429	527
429	533
429	534
429	536
429	537
429	538
429	539
429	540
429	541
429	542
429	543
429	544
429	545
429	546
429	547
429	548
429	549
429	550
429	552
429	553
429	554
429	555
429	556
429	557
429	558
429	560
429	561
429	562
429	576
429	577
429	578
429	579
429	585
429	586
429	587
429	588
429	589
429	590
429	591
429	592
429	593
429	594
429	595
429	596
429	597
429	598
430	431
430	433
430	436
430	437
430	438
430	441
430	442
430	445
430	450
430	451
430	458
430	490
430	520
430	521
430	531
430	532
430	533
430	544
430	546
430	559
430	561
430	564
430	565
430	566
430	567
430	569
430	570
430	571
430	572
430	573
430	574
430	575
430	580
430	582
430	583
431	432
431	434
431	435
431	437
431	438
431	439
431	440
431	447
431	449
431	489
431	490
431	504
431	505
431	506
431	514
431	515
431	521
431	522
431	524
431	526
431	527
431	533
431	534
431	536
431	537
431	538
431	539
431	540
431	541
431	542
431	543
431	544
431	545
431	546
431	547
431	548
431	549
431	550
431	552
431	553
431	554
431	555
431	556
431	557
431	558
431	559
431	561
431	562
431	572
431	576
431	577
431	578
431	579
431	585
431	586
431	587
431	588
431	589
431	590
431	591
431	592
431	593
431	594
431	595
431	596
431	597
431	598
431	599
432	434
432	435
432	443
432	447
432	448
432	504
432	505
432	506
432	514
432	515
432	524
432	526
432	527
432	528
432	529
432	534
432	535
432	536
432	538
432	551
432	555
432	556
432	579
432	587
432	600
433	436
433	437
433	438
433	439
433	440
433	441
433	442
433	445
433	450
433	451
433	458
433	490
433	520
433	521
433	531
433	532
433	533
433	544
433	546
433	547
433	559
433	561
433	564
433	566
433	567
433	569
433	570
433	571
433	572
433	573
433	574
433	575
433	580
433	582
433	583
433	584
434	435
434	438
434	439
434	440
434	447
434	449
434	504
434	505
434	506
434	514
434	522
434	524
434	526
434	533
434	534
434	536
434	537
434	538
434	539
434	540
434	541
434	542
434	543
434	544
434	545
434	547
434	548
434	550
434	552
434	553
434	554
434	555
434	556
434	557
434	560
434	562
434	564
434	576
434	577
434	578
434	579
434	585
434	586
434	588
434	589
434	590
434	592
434	594
434	595
434	596
434	597
434	598
434	599
435	438
435	439
435	440
435	443
435	447
435	448
435	449
435	489
435	504
435	505
435	506
435	514
435	515
435	521
435	522
435	524
435	526
435	527
435	528
435	529
435	533
435	534
435	535
435	536
435	537
435	538
435	539
435	540
435	541
435	542
435	543
435	544
435	545
435	546
435	547
435	548
435	549
435	550
435	551
435	552
435	553
435	554
435	555
435	556
435	557
435	558
435	559
435	560
435	562
435	575
435	576
435	577
435	578
435	579
435	585
435	586
435	587
435	588
435	589
435	590
435	591
435	592
435	593
435	594
435	595
435	596
435	597
435	598
435	600
436	437
436	438
436	441
436	442
436	445
436	490
436	521
436	531
436	532
436	533
436	559
436	561
436	570
436	571
436	572
436	573
436	574
436	575
436	580
436	582
436	583
437	438
437	439
437	440
437	441
437	442
437	445
437	451
437	458
437	490
437	505
437	520
437	521
437	531
437	532
437	533
437	544
437	546
437	547
437	554
437	559
437	561
437	564
437	565
437	566
437	567
437	569
437	570
437	571
437	572
437	573
437	574
437	575
437	580
437	582
437	583
437	584
438	439
438	440
438	441
438	442
438	445
438	447
438	451
438	458
438	489
438	490
438	504
438	505
438	506
438	514
438	521
438	526
438	531
438	532
438	533
438	534
438	539
438	540
438	541
438	542
438	544
438	545
438	546
438	547
438	550
438	553
438	557
438	559
438	561
438	562
438	564
438	566
438	567
438	569
438	570
438	572
438	573
438	574
438	575
438	578
438	579
438	580
438	582
438	583
438	584
438	585
438	594
439	440
439	447
439	458
439	490
439	505
439	514
439	521
439	533
439	536
439	544
439	545
439	547
439	556
439	559
439	562
439	576
439	578
439	589
439	594
439	595
439	596
440	442
440	447
440	504
440	505
440	506
440	514
440	521
440	526
440	532
440	533
440	534
440	536
440	538
440	539
440	540
440	541
440	542
440	544
440	545
440	547
440	548
440	552
440	554
440	555
440	556
440	557
440	560
440	561
440	562
440	575
440	577
440	578
440	579
440	585
440	586
440	588
440	589
440	592
440	594
440	595
440	596
440	598
441	442
441	445
441	450
441	451
441	458
441	490
441	520
441	531
441	532
441	533
441	544
441	546
441	559
441	561
441	564
441	565
441	566
441	567
441	568
441	569
441	570
441	571
441	572
441	573
441	574
441	575
441	580
441	582
441	583
442	445
442	450
442	451
442	458
442	490
442	504
442	520
442	521
442	531
442	532
442	533
442	559
442	561
442	564
442	566
442	567
442	568
442	569
442	570
442	571
442	572
442	573
442	574
442	575
442	580
442	582
442	583
443	447
443	448
443	449
443	504
443	505
443	506
443	514
443	515
443	524
443	525
443	526
443	527
443	528
443	529
443	534
443	535
443	536
443	538
443	541
443	542
443	545
443	548
443	550
443	551
443	552
443	553
443	554
443	555
443	556
443	558
443	576
443	591
443	593
443	600
443	611
443	612
444	455
444	459
444	460
444	461
444	467
444	468
444	469
444	470
444	471
444	472
444	473
444	475
444	476
444	478
444	479
444	480
444	481
444	482
444	483
444	485
444	491
444	495
444	496
444	497
444	499
444	501
444	503
444	510
444	516
444	519
444	563
444	613
444	616
444	620
444	621
444	623
444	624
444	626
444	627
444	628
444	629
444	630
444	631
444	632
444	633
444	634
444	635
444	636
444	637
444	638
444	639
444	640
444	641
444	643
444	644
444	645
444	646
444	647
444	648
444	649
444	650
444	651
444	653
444	654
444	655
444	656
444	661
444	663
444	665
444	666
444	667
444	668
444	669
444	670
444	671
444	672
444	673
444	674
444	675
444	676
444	677
444	678
444	679
444	680
444	681
444	682
444	683
444	684
444	685
444	686
444	687
444	688
444	690
444	691
444	692
444	693
444	694
444	695
444	697
444	698
444	699
444	700
444	701
444	702
444	703
444	708
444	710
444	711
444	717
444	723
444	724
444	727
444	731
444	732
444	733
444	734
444	735
444	736
444	737
445	450
445	451
445	458
445	490
445	520
445	531
445	532
445	533
445	559
445	561
445	564
445	565
445	566
445	567
445	568
445	569
445	570
445	571
445	572
445	573
445	574
445	575
445	582
446	452
446	454
446	455
446	456
446	459
446	462
446	463
446	464
446	465
446	466
446	467
446	471
446	474
446	475
446	476
446	477
446	478
446	483
446	485
446	486
446	487
446	488
446	491
446	492
446	493
446	497
446	498
446	499
446	501
446	503
446	507
446	509
446	510
446	511
446	513
446	516
446	518
446	523
446	601
446	613
446	615
446	619
446	621
446	623
446	624
446	627
446	636
446	651
446	652
446	654
446	655
446	656
446	657
446	658
446	659
446	660
446	673
446	696
446	704
446	705
446	714
446	715
446	719
446	720
446	722
446	723
446	724
446	730
446	732
446	736
446	737
446	745
446	746
446	747
446	749
446	752
446	753
446	763
446	766
446	767
446	787
446	794
446	795
446	797
446	800
446	801
446	802
446	806
446	808
446	810
446	811
446	819
446	826
446	831
446	836
446	837
446	839
446	861
447	489
447	504
447	505
447	506
447	514
447	515
447	522
447	524
447	526
447	534
447	535
447	536
447	537
447	538
447	539
447	540
447	541
447	542
447	544
447	545
447	548
447	549
447	550
447	552
447	553
447	554
447	555
447	556
447	557
447	560
447	562
447	574
447	576
447	577
447	578
447	579
447	585
447	586
447	587
447	588
447	589
447	592
447	594
447	595
447	596
448	504
448	506
448	515
448	524
448	528
448	529
448	535
448	551
449	504
449	505
449	506
449	514
449	515
449	524
449	526
449	527
449	534
449	535
449	536
449	537
449	538
449	539
449	540
449	541
449	542
449	543
449	545
449	548
449	549
449	550
449	552
449	553
449	554
449	555
449	556
449	558
449	562
449	576
449	578
449	579
449	585
449	586
449	587
449	590
449	591
449	592
449	593
449	597
449	599
449	600
449	608
449	610
449	612
450	451
450	520
450	531
450	532
450	533
450	561
450	564
450	565
450	566
450	567
450	568
450	569
450	570
450	571
450	572
450	573
450	602
451	490
451	520
451	521
451	531
451	532
451	533
451	559
451	561
451	564
451	565
451	566
451	567
451	568
451	569
451	570
451	571
451	572
451	573
451	581
451	582
451	584
452	453
452	454
452	455
452	456
452	457
452	462
452	464
452	471
452	474
452	483
452	493
452	508
452	509
452	510
452	530
452	601
452	613
452	614
452	652
452	656
452	657
452	659
452	687
452	691
452	694
452	696
452	697
452	704
452	705
452	714
452	715
452	716
452	720
452	723
452	730
452	740
452	741
452	747
452	750
452	751
452	752
452	765
452	766
452	769
452	786
452	787
452	794
452	795
452	796
452	800
452	801
452	802
452	821
452	831
452	873
452	878
452	880
452	886
452	887
452	888
452	890
452	894
452	895
453	454
453	456
453	457
453	462
453	464
453	465
453	466
453	467
453	471
453	472
453	473
453	474
453	476
453	478
453	479
453	481
453	482
453	483
453	485
453	491
453	492
453	493
453	497
453	499
453	500
453	501
453	503
453	507
453	508
453	509
453	510
453	511
453	512
453	513
453	516
453	518
453	530
453	563
453	601
453	613
453	614
453	615
453	616
453	618
453	619
453	620
453	621
453	622
453	623
453	624
453	630
453	633
453	646
453	648
453	651
453	652
453	653
453	654
453	655
453	656
453	657
453	659
453	660
453	666
453	686
453	687
453	696
453	697
453	698
453	699
453	704
453	705
453	706
453	707
453	708
453	709
453	711
453	712
453	713
453	714
453	715
453	716
453	717
453	720
453	723
453	724
453	725
453	726
453	727
453	728
453	729
453	730
453	733
453	737
453	740
453	741
453	742
453	745
453	746
453	747
453	748
453	750
453	751
453	752
453	753
453	754
453	757
453	759
453	765
453	766
453	769
453	771
453	772
453	773
453	774
453	780
453	786
453	787
453	788
453	792
453	793
453	794
453	795
453	796
453	798
453	800
453	801
453	802
453	808
453	810
453	821
453	822
453	827
453	831
453	836
453	839
453	841
453	870
453	872
453	873
453	878
453	879
453	880
453	884
453	886
453	887
453	888
453	889
453	890
453	891
453	894
453	895
453	896
454	455
454	456
454	457
454	462
454	463
454	464
454	465
454	466
454	467
454	471
454	473
454	474
454	475
454	476
454	477
454	482
454	483
454	485
454	492
454	493
454	496
454	501
454	507
454	508
454	509
454	510
454	511
454	513
454	530
454	563
454	601
454	613
454	614
454	616
454	618
454	619
454	620
454	621
454	622
454	623
454	624
454	630
454	642
454	648
454	650
454	651
454	652
454	654
454	656
454	657
454	658
454	659
454	696
454	697
454	702
454	704
454	706
454	709
454	714
454	715
454	716
454	720
454	721
454	722
454	723
454	724
454	725
454	727
454	732
454	736
454	737
454	738
454	740
454	741
454	742
454	745
454	746
454	747
454	749
454	750
454	751
454	752
454	753
454	763
454	765
454	766
454	767
454	769
454	771
454	780
454	786
454	787
454	788
454	792
454	794
454	795
454	796
454	797
454	800
454	801
454	802
454	810
454	811
454	819
454	821
454	831
454	836
454	837
454	839
454	840
454	841
454	861
454	873
454	878
454	879
454	886
454	887
454	888
454	890
454	893
454	894
454	895
454	901
455	456
455	460
455	462
455	463
455	464
455	465
455	467
455	468
455	469
455	472
455	474
455	475
455	476
455	477
455	478
455	479
455	483
455	488
455	491
455	492
455	493
455	496
455	497
455	499
455	500
455	501
455	503
455	507
455	508
455	509
455	510
455	511
455	512
455	513
455	530
455	563
455	601
455	613
455	614
455	615
455	616
455	618
455	619
455	620
455	621
455	622
455	623
455	624
455	630
455	646
455	647
455	648
455	649
455	651
455	652
455	654
455	656
455	657
455	658
455	659
455	662
455	696
455	697
455	704
455	705
455	706
455	707
455	714
455	715
455	716
455	719
455	720
455	721
455	722
455	723
455	724
455	725
455	726
455	727
455	730
455	732
455	733
455	737
455	740
455	741
455	745
455	746
455	747
455	748
455	750
455	751
455	752
455	753
455	754
455	763
455	765
455	767
455	769
455	771
455	787
455	788
455	793
455	794
455	795
455	796
455	797
455	800
455	801
455	802
455	806
455	807
455	808
455	810
455	811
455	819
455	821
455	822
455	834
455	836
455	837
455	839
455	840
455	861
455	873
455	878
455	887
455	888
455	890
455	895
455	901
455	916
455	926
456	457
456	461
456	462
456	463
456	464
456	465
456	466
456	467
456	469
456	471
456	472
456	473
456	474
456	475
456	476
456	477
456	478
456	479
456	481
456	482
456	483
456	485
456	486
456	491
456	492
456	493
456	495
456	496
456	497
456	499
456	500
456	501
456	503
456	507
456	508
456	509
456	510
456	511
456	512
456	513
456	516
456	530
456	563
456	601
456	613
456	614
456	615
456	616
456	618
456	619
456	620
456	621
456	622
456	624
456	633
456	634
456	636
456	646
456	648
456	649
456	650
456	651
456	652
456	653
456	654
456	655
456	656
456	657
456	658
456	659
456	661
456	687
456	694
456	696
456	697
456	698
456	699
456	703
456	704
456	705
456	706
456	707
456	708
456	709
456	712
456	714
456	715
456	716
456	719
456	720
456	722
456	723
456	724
456	725
456	726
456	727
456	728
456	729
456	730
456	731
456	732
456	733
456	737
456	740
456	741
456	742
456	745
456	746
456	747
456	748
456	750
456	751
456	752
456	753
456	754
456	757
456	759
456	763
456	765
456	766
456	767
456	769
456	771
456	772
456	773
456	774
456	775
456	780
456	786
456	787
456	788
456	792
456	793
456	794
456	795
456	796
456	797
456	798
456	800
456	801
456	802
456	806
456	808
456	810
456	811
456	819
456	820
456	821
456	822
456	823
456	824
456	831
456	832
456	834
456	836
456	837
456	839
456	840
456	841
456	856
456	860
456	861
456	868
456	870
456	873
456	878
456	879
456	880
456	884
456	886
456	887
456	888
456	890
456	891
456	894
456	895
456	896
456	901
456	925
457	530
457	563
457	601
457	614
457	656
457	657
457	696
457	697
457	705
457	709
457	720
457	725
457	741
457	769
457	772
457	773
457	786
457	787
457	795
457	796
457	800
457	801
457	802
457	873
457	878
457	880
457	886
457	887
457	888
457	889
457	890
457	894
457	895
458	489
458	490
458	520
458	521
458	533
458	546
458	559
458	561
458	564
458	571
458	572
458	573
458	575
458	580
458	582
458	584
459	460
459	461
459	462
459	463
459	464
459	465
459	466
459	468
459	471
459	475
459	476
459	479
459	485
459	486
459	488
459	495
459	503
459	516
459	626
459	627
459	628
459	629
459	630
459	631
459	632
459	633
459	634
459	635
459	636
459	637
459	638
459	639
459	645
459	646
459	647
459	648
459	649
459	650
459	663
459	665
459	666
459	668
459	669
459	671
459	672
459	673
459	674
459	678
459	679
459	680
459	683
459	684
459	685
459	686
459	687
459	688
459	690
459	691
459	692
459	694
459	696
459	764
460	461
460	462
460	464
460	465
460	466
460	467
460	468
460	469
460	470
460	471
460	472
460	473
460	475
460	476
460	478
460	479
460	480
460	481
460	482
460	483
460	485
460	491
460	492
460	493
460	494
460	495
460	496
460	497
460	498
460	499
460	500
460	501
460	502
460	503
460	507
460	509
460	510
460	511
460	513
460	516
460	517
460	518
460	519
460	523
460	563
460	613
460	615
460	616
460	618
460	619
460	620
460	621
460	622
460	623
460	624
460	625
460	626
460	628
460	629
460	630
460	631
460	632
460	633
460	634
460	635
460	636
460	637
460	638
460	639
460	640
460	641
460	642
460	643
460	644
460	645
460	646
460	647
460	648
460	649
460	650
460	651
460	652
460	653
460	654
460	655
460	656
460	657
460	659
460	660
460	662
460	663
460	664
460	665
460	666
460	667
460	668
460	669
460	670
460	671
460	672
460	673
460	674
460	675
460	676
460	677
460	678
460	679
460	680
460	681
460	682
460	683
460	684
460	685
460	686
460	687
460	690
460	691
460	692
460	693
460	694
460	695
460	696
460	699
460	700
460	701
460	702
460	703
460	704
460	705
460	707
460	708
460	710
460	711
460	716
460	717
460	718
460	719
460	724
460	726
460	727
460	731
460	732
460	734
460	735
460	736
460	737
460	738
460	739
460	741
460	742
460	748
460	749
460	759
460	761
460	762
460	764
460	767
460	768
460	773
460	775
460	780
460	785
460	786
460	788
460	791
460	797
460	799
460	805
460	806
460	808
460	809
460	810
460	811
460	812
460	813
460	814
460	815
460	816
460	817
461	462
461	464
461	466
461	467
461	468
461	469
461	470
461	471
461	472
461	473
461	475
461	476
461	477
461	478
461	479
461	480
461	481
461	482
461	483
461	485
461	486
461	491
461	492
461	493
461	494
461	495
461	496
461	497
461	499
461	500
461	501
461	502
461	503
461	507
461	508
461	509
461	510
461	511
461	512
461	516
461	518
461	519
461	523
461	563
461	601
461	613
461	614
461	615
461	616
461	619
461	620
461	621
461	622
461	623
461	624
461	628
461	629
461	630
461	631
461	632
461	633
461	634
461	636
461	638
461	639
461	640
461	641
461	642
461	643
461	644
461	645
461	646
461	647
461	648
461	649
461	650
461	651
461	652
461	653
461	654
461	655
461	656
461	657
461	658
461	659
461	661
461	662
461	663
461	664
461	665
461	666
461	668
461	669
461	670
461	671
461	672
461	673
461	674
461	675
461	676
461	677
461	678
461	679
461	680
461	681
461	682
461	683
461	684
461	685
461	686
461	687
461	690
461	691
461	692
461	693
461	694
461	695
461	696
461	697
461	698
461	699
461	700
461	701
461	702
461	703
461	704
461	705
461	707
461	708
461	710
461	711
461	712
461	713
461	714
461	715
461	716
461	717
461	718
461	719
461	720
461	722
461	723
461	725
461	726
461	727
461	728
461	729
461	730
461	732
461	733
461	734
461	735
461	736
461	737
461	738
461	739
461	740
461	741
461	742
461	743
461	744
461	747
461	748
461	752
461	756
461	757
461	759
461	763
461	764
461	766
461	768
461	772
461	773
461	775
461	776
461	782
461	785
461	788
461	798
461	800
461	804
461	809
461	813
461	814
461	823
461	831
461	841
462	463
462	464
462	465
462	466
462	467
462	468
462	470
462	471
462	472
462	473
462	474
462	475
462	476
462	477
462	478
462	479
462	481
462	482
462	483
462	485
462	486
462	487
462	488
462	491
462	492
462	493
462	495
462	496
462	497
462	498
462	503
462	507
462	508
462	509
462	510
462	512
462	513
462	516
462	518
462	523
462	530
462	563
462	601
462	613
462	614
462	619
462	624
462	627
462	632
462	634
462	636
462	640
462	645
462	646
462	647
462	648
462	650
462	651
462	652
462	654
462	655
462	656
462	658
462	659
462	660
462	662
462	663
462	672
462	682
462	685
462	687
462	696
462	697
462	698
462	699
462	702
462	703
462	704
462	705
462	712
462	713
462	714
462	715
462	716
462	719
462	720
462	721
462	722
462	723
462	724
462	725
462	726
462	730
462	732
462	737
462	740
462	741
462	742
462	744
462	748
462	749
462	753
462	759
462	763
462	764
462	765
462	766
462	767
462	768
462	786
462	787
462	793
462	794
462	795
462	796
462	797
462	800
462	801
462	802
462	805
462	807
462	808
462	810
462	811
462	831
462	834
462	836
462	837
462	839
462	861
462	887
462	890
462	893
463	464
463	465
463	466
463	467
463	473
463	474
463	475
463	476
463	477
463	478
463	482
463	483
463	485
463	486
463	487
463	488
463	491
463	492
463	493
463	496
463	497
463	498
463	499
463	500
463	501
463	502
463	503
463	507
463	509
463	510
463	513
463	516
463	518
463	523
463	563
463	613
463	614
463	615
463	616
463	618
463	619
463	621
463	623
463	624
463	627
463	634
463	636
463	637
463	642
463	652
463	654
463	656
463	657
463	659
463	696
463	704
463	706
463	713
463	714
463	715
463	720
463	722
463	723
463	724
463	727
463	732
463	733
463	745
463	747
463	751
463	752
463	753
463	763
463	767
463	771
463	772
463	795
463	797
463	802
463	806
463	808
463	810
463	811
463	819
463	821
463	826
463	836
463	837
463	839
463	845
463	861
463	865
463	877
464	465
464	466
464	467
464	468
464	469
464	470
464	471
464	472
464	473
464	474
464	475
464	476
464	477
464	478
464	479
464	481
464	482
464	483
464	484
464	485
464	486
464	487
464	488
464	491
464	492
464	493
464	495
464	496
464	497
464	498
464	499
464	500
464	501
464	502
464	503
464	507
464	508
464	509
464	510
464	511
464	512
464	513
464	516
464	517
464	518
464	523
464	530
464	563
464	601
464	613
464	614
464	615
464	616
464	618
464	619
464	620
464	621
464	622
464	623
464	624
464	625
464	630
464	632
464	633
464	634
464	636
464	640
464	642
464	644
464	646
464	647
464	648
464	649
464	650
464	651
464	652
464	653
464	654
464	655
464	656
464	657
464	658
464	659
464	660
464	661
464	666
464	672
464	674
464	678
464	679
464	684
464	685
464	686
464	687
464	691
464	694
464	695
464	696
464	697
464	698
464	699
464	702
464	704
464	705
464	706
464	707
464	708
464	709
464	712
464	713
464	714
464	715
464	716
464	719
464	720
464	721
464	722
464	723
464	724
464	725
464	726
464	727
464	728
464	729
464	730
464	731
464	732
464	733
464	734
464	737
464	738
464	739
464	740
464	741
464	742
464	744
464	745
464	746
464	747
464	748
464	749
464	751
464	752
464	753
464	757
464	758
464	760
464	763
464	765
464	766
464	767
464	768
464	769
464	771
464	772
464	773
464	774
464	780
464	785
464	786
464	787
464	788
464	792
464	793
464	794
464	795
464	796
464	797
464	800
464	801
464	802
464	805
464	806
464	808
464	809
464	810
464	811
464	812
464	814
464	819
464	820
464	821
464	822
464	825
464	826
464	830
464	831
464	834
464	835
464	836
464	837
464	839
464	840
464	841
464	861
464	868
464	871
464	873
464	878
464	879
464	884
464	886
464	887
464	888
464	890
464	893
464	895
464	896
464	901
464	916
465	466
465	467
465	471
465	474
465	475
465	476
465	477
465	478
465	479
465	482
465	483
465	485
465	486
465	487
465	488
465	491
465	493
465	496
465	497
465	498
465	499
465	500
465	501
465	502
465	503
465	507
465	509
465	510
465	511
465	513
465	516
465	517
465	518
465	523
465	563
465	601
465	613
465	614
465	615
465	616
465	618
465	619
465	620
465	621
465	622
465	623
465	624
465	633
465	636
465	640
465	642
465	644
465	651
465	656
465	657
465	659
465	660
465	697
465	699
465	704
465	705
465	706
465	708
465	712
465	714
465	715
465	717
465	720
465	722
465	723
465	724
465	725
465	727
465	733
465	745
465	746
465	747
465	751
465	752
465	753
465	754
465	757
465	760
465	769
465	771
465	773
465	791
465	797
465	802
465	806
465	810
465	811
465	818
465	819
465	820
465	821
465	822
465	834
465	835
465	836
465	837
465	839
465	840
465	860
465	861
465	862
465	877
465	878
465	884
465	901
466	467
466	468
466	471
466	472
466	473
466	475
466	476
466	477
466	478
466	479
466	481
466	482
466	483
466	485
466	486
466	487
466	488
466	491
466	492
466	493
466	494
466	495
466	496
466	497
466	498
466	499
466	500
466	501
466	502
466	503
466	507
466	508
466	509
466	510
466	511
466	512
466	513
466	516
466	517
466	518
466	519
466	523
466	563
466	601
466	613
466	614
466	615
466	616
466	617
466	618
466	619
466	620
466	621
466	622
466	623
466	624
466	627
466	632
466	634
466	636
466	640
466	642
466	645
466	646
466	647
466	650
466	651
466	652
466	653
466	654
466	655
466	656
466	657
466	660
466	661
466	662
466	663
466	664
466	672
466	681
466	686
466	687
466	694
466	696
466	697
466	698
466	699
466	700
466	702
466	705
466	706
466	707
466	708
466	709
466	713
466	714
466	715
466	717
466	718
466	720
466	722
466	724
466	725
466	726
466	727
466	728
466	729
466	732
466	733
466	734
466	736
466	737
466	738
466	741
466	742
466	747
466	750
466	751
466	752
466	753
466	754
466	755
466	756
466	757
466	758
466	759
466	761
466	762
466	769
466	772
466	773
466	774
466	775
466	778
466	779
466	780
466	782
466	788
466	797
466	798
466	800
466	810
466	812
466	813
466	814
466	820
466	821
466	822
466	823
466	825
466	826
466	835
466	836
466	837
466	839
466	840
466	841
466	843
466	844
466	845
466	855
466	856
466	857
466	859
466	860
466	861
466	862
466	872
466	877
466	878
466	879
466	883
466	884
466	891
467	468
467	469
467	470
467	471
467	472
467	473
467	474
467	475
467	476
467	478
467	479
467	480
467	481
467	482
467	483
467	485
467	491
467	492
467	493
467	494
467	495
467	496
467	497
467	498
467	499
467	500
467	501
467	502
467	507
467	508
467	509
467	510
467	511
467	516
467	518
467	523
467	563
467	601
467	603
467	613
467	614
467	615
467	619
467	620
467	621
467	622
467	625
467	627
467	629
467	630
467	632
467	633
467	634
467	635
467	636
467	638
467	639
467	640
467	641
467	642
467	643
467	644
467	645
467	646
467	647
467	648
467	649
467	650
467	651
467	652
467	653
467	654
467	655
467	656
467	657
467	659
467	660
467	661
467	662
467	663
467	664
467	665
467	666
467	669
467	672
467	673
467	674
467	678
467	679
467	680
467	681
467	682
467	683
467	684
467	685
467	686
467	687
467	692
467	693
467	694
467	695
467	696
467	697
467	698
467	699
467	700
467	701
467	702
467	703
467	704
467	705
467	707
467	708
467	711
467	712
467	713
467	714
467	715
467	716
467	717
467	718
467	719
467	720
467	722
467	723
467	724
467	725
467	726
467	727
467	728
467	729
467	730
467	731
467	732
467	734
467	735
467	737
467	738
467	739
467	740
467	741
467	742
467	743
467	744
467	745
467	747
467	748
467	751
467	752
467	754
467	757
467	761
467	764
467	766
467	773
467	775
467	776
467	780
467	782
467	783
467	785
467	787
467	788
467	793
467	794
467	795
467	798
467	799
467	801
467	809
467	813
467	814
467	815
467	828
467	834
467	841
467	846
467	869
467	873
467	874
467	875
467	876
467	877
468	469
468	470
468	471
468	472
468	473
468	475
468	476
468	478
468	479
468	480
468	481
468	482
468	483
468	484
468	485
468	486
468	491
468	492
468	493
468	494
468	495
468	496
468	497
468	498
468	499
468	500
468	501
468	502
468	503
468	507
468	508
468	509
468	510
468	511
468	512
468	513
468	516
468	518
468	519
468	523
468	563
468	601
468	613
468	614
468	615
468	616
468	618
468	619
468	620
468	621
468	622
468	623
468	624
468	629
468	630
468	631
468	632
468	633
468	634
468	635
468	636
468	637
468	638
468	639
468	640
468	641
468	642
468	643
468	644
468	645
468	646
468	647
468	648
468	649
468	650
468	651
468	652
468	653
468	654
468	655
468	656
468	657
468	658
468	659
468	660
468	661
468	662
468	663
468	664
468	666
468	668
468	669
468	670
468	671
468	672
468	673
468	674
468	675
468	676
468	677
468	678
468	679
468	680
468	681
468	682
468	683
468	684
468	685
468	686
468	687
468	691
468	692
468	693
468	694
468	695
468	696
468	698
468	699
468	700
468	701
468	702
468	703
468	704
468	707
468	708
468	710
468	711
468	712
468	713
468	716
468	717
468	718
468	719
468	720
468	722
468	724
468	726
468	727
468	731
468	732
468	733
468	734
468	735
468	736
468	737
468	739
468	741
468	742
468	743
468	744
468	747
468	748
468	752
468	756
468	758
468	759
468	760
468	761
468	763
468	764
468	766
468	767
468	768
468	773
468	774
468	777
468	782
468	785
468	791
468	793
468	798
468	800
468	804
468	806
468	809
468	812
468	814
468	815
468	817
468	818
468	821
468	848
468	851
468	855
468	865
468	866
468	869
468	871
468	883
469	470
469	471
469	472
469	473
469	475
469	476
469	478
469	479
469	480
469	481
469	482
469	483
469	485
469	491
469	492
469	494
469	495
469	496
469	497
469	501
469	507
469	508
469	509
469	510
469	511
469	512
469	517
469	523
469	563
469	613
469	614
469	620
469	621
469	622
469	629
469	630
469	631
469	632
469	633
469	634
469	635
469	636
469	638
469	639
469	640
469	641
469	642
469	643
469	644
469	645
469	646
469	647
469	648
469	649
469	650
469	651
469	652
469	653
469	654
469	655
469	656
469	657
469	658
469	659
469	661
469	662
469	663
469	665
469	666
469	669
469	672
469	673
469	674
469	675
469	678
469	679
469	680
469	681
469	682
469	683
469	684
469	685
469	686
469	687
469	691
469	693
469	694
469	695
469	696
469	697
469	698
469	699
469	700
469	701
469	702
469	703
469	704
469	707
469	710
469	711
469	712
469	717
469	718
469	723
469	725
469	726
469	727
469	730
469	732
469	739
469	742
469	743
469	744
469	747
469	752
469	757
469	772
469	773
469	782
469	788
469	806
469	809
469	812
470	471
470	472
470	473
470	475
470	476
470	478
470	479
470	480
470	481
470	482
470	483
470	485
470	491
470	492
470	495
470	496
470	498
470	500
470	501
470	507
470	508
470	509
470	511
470	516
470	523
470	613
470	619
470	621
470	630
470	631
470	632
470	633
470	634
470	636
470	638
470	639
470	640
470	641
470	642
470	643
470	644
470	645
470	646
470	647
470	648
470	649
470	650
470	651
470	652
470	653
470	654
470	655
470	656
470	657
470	658
470	659
470	661
470	663
470	664
470	669
470	671
470	672
470	673
470	674
470	675
470	681
470	682
470	683
470	684
470	685
470	686
470	687
470	693
470	694
470	695
470	696
470	697
470	699
470	700
470	701
470	702
470	704
470	707
470	708
470	710
470	711
470	714
470	717
470	718
470	719
470	720
470	722
470	726
470	729
470	732
470	736
470	739
470	743
470	744
470	773
470	782
470	785
470	831
471	472
471	473
471	475
471	476
471	477
471	478
471	479
471	480
471	481
471	482
471	483
471	484
471	485
471	486
471	487
471	491
471	492
471	495
471	496
471	497
471	498
471	499
471	500
471	501
471	507
471	508
471	509
471	512
471	516
471	517
471	518
471	523
471	530
471	563
471	601
471	613
471	614
471	615
471	620
471	621
471	622
471	623
471	626
471	628
471	629
471	630
471	631
471	632
471	633
471	634
471	636
471	637
471	638
471	639
471	640
471	641
471	642
471	643
471	644
471	645
471	646
471	647
471	648
471	649
471	650
471	651
471	652
471	653
471	654
471	655
471	656
471	657
471	658
471	659
471	660
471	661
471	663
471	664
471	665
471	666
471	672
471	673
471	674
471	677
471	678
471	679
471	680
471	681
471	682
471	683
471	684
471	685
471	686
471	687
471	691
471	692
471	693
471	694
471	695
471	696
471	697
471	698
471	699
471	701
471	702
471	703
471	704
471	705
471	707
471	708
471	709
471	711
471	712
471	713
471	714
471	715
471	716
471	717
471	718
471	719
471	720
471	722
471	723
471	725
471	726
471	727
471	729
471	730
471	732
471	733
471	739
471	740
471	741
471	742
471	743
471	751
471	754
471	759
471	764
471	765
471	766
471	772
471	775
471	785
471	786
471	787
471	792
471	793
471	794
471	795
471	796
471	800
471	801
471	809
471	830
471	831
471	871
471	878
471	886
471	887
471	888
471	889
472	473
472	474
472	475
472	476
472	478
472	479
472	480
472	481
472	482
472	483
472	484
472	485
472	487
472	491
472	492
472	495
472	496
472	497
472	501
472	507
472	508
472	509
472	516
472	517
472	523
472	563
472	601
472	613
472	614
472	621
472	622
472	629
472	630
472	631
472	632
472	633
472	634
472	636
472	638
472	639
472	640
472	641
472	642
472	643
472	644
472	645
472	646
472	647
472	648
472	649
472	650
472	651
472	652
472	653
472	654
472	655
472	656
472	657
472	660
472	661
472	666
472	668
472	672
472	673
472	674
472	677
472	678
472	679
472	680
472	682
472	684
472	685
472	686
472	687
472	691
472	692
472	694
472	695
472	696
472	697
472	698
472	699
472	701
472	702
472	703
472	704
472	705
472	708
472	711
472	712
472	713
472	714
472	715
472	716
472	717
472	718
472	720
472	723
472	726
472	727
472	729
472	730
472	732
472	734
472	739
472	740
472	741
472	742
472	754
472	761
472	764
472	765
472	766
472	785
472	786
472	787
472	792
472	793
472	794
472	809
472	814
472	830
472	869
472	871
472	878
472	886
473	475
473	476
473	477
473	478
473	479
473	480
473	481
473	482
473	483
473	484
473	485
473	486
473	491
473	492
473	495
473	496
473	497
473	499
473	500
473	501
473	507
473	508
473	509
473	510
473	512
473	523
473	530
473	563
473	613
473	614
473	620
473	621
473	622
473	630
473	632
473	633
473	634
473	636
473	640
473	641
473	642
473	643
473	644
473	645
473	646
473	647
473	648
473	649
473	650
473	651
473	652
473	653
473	654
473	655
473	656
473	657
473	658
473	661
473	662
473	663
473	666
473	672
473	673
473	674
473	677
473	678
473	679
473	680
473	684
473	685
473	686
473	687
473	691
473	692
473	694
473	695
473	696
473	697
473	699
473	701
473	702
473	703
473	704
473	705
473	707
473	708
473	711
473	712
473	713
473	714
473	715
473	716
473	717
473	718
473	720
473	722
473	723
473	725
473	726
473	727
473	729
473	730
473	731
473	732
473	734
473	739
473	740
473	741
473	742
473	754
473	764
473	765
473	766
473	772
473	773
473	774
473	776
473	780
473	785
473	786
473	792
473	793
473	794
473	796
473	800
473	801
473	806
473	809
473	830
473	831
473	841
473	871
474	475
474	476
474	477
474	478
474	481
474	482
474	483
474	485
474	486
474	491
474	492
474	493
474	496
474	497
474	499
474	500
474	501
474	503
474	507
474	509
474	510
474	511
474	512
474	513
474	516
474	530
474	563
474	601
474	613
474	614
474	615
474	616
474	618
474	619
474	620
474	621
474	622
474	624
474	632
474	642
474	648
474	651
474	652
474	654
474	655
474	656
474	657
474	658
474	659
474	660
474	662
474	672
474	687
474	696
474	697
474	699
474	704
474	705
474	706
474	707
474	708
474	714
474	715
474	716
474	720
474	721
474	722
474	723
474	724
474	725
474	726
474	727
474	729
474	733
474	739
474	741
474	745
474	746
474	747
474	748
474	750
474	751
474	752
474	753
474	754
474	763
474	771
474	772
474	774
474	786
474	787
474	788
474	794
474	795
474	796
474	797
474	800
474	801
474	802
474	805
474	806
474	808
474	810
474	811
474	819
474	820
474	821
474	822
474	831
474	836
474	837
474	839
474	840
474	841
474	860
474	861
474	868
474	872
474	873
474	879
474	884
474	887
474	888
474	894
474	895
474	901
474	926
474	927
475	476
475	477
475	478
475	479
475	480
475	481
475	482
475	483
475	484
475	485
475	486
475	487
475	488
475	491
475	492
475	493
475	494
475	495
475	496
475	497
475	498
475	499
475	501
475	502
475	503
475	507
475	508
475	509
475	510
475	511
475	512
475	516
475	517
475	518
475	523
475	563
475	601
475	613
475	614
475	616
475	620
475	621
475	622
475	624
475	628
475	629
475	630
475	631
475	632
475	633
475	634
475	635
475	636
475	637
475	638
475	639
475	640
475	641
475	642
475	643
475	644
475	645
475	646
475	647
475	648
475	649
475	650
475	651
475	652
475	653
475	654
475	655
475	656
475	657
475	661
475	662
475	663
475	664
475	665
475	666
475	668
475	669
475	671
475	672
475	673
475	674
475	675
475	676
475	677
475	678
475	679
475	680
475	681
475	682
475	683
475	684
475	685
475	686
475	687
475	690
475	691
475	692
475	693
475	694
475	695
475	696
475	697
475	698
475	699
475	700
475	701
475	702
475	703
475	704
475	705
475	706
475	707
475	708
475	709
475	711
475	712
475	713
475	714
475	715
475	716
475	717
475	718
475	719
475	720
475	723
475	725
475	726
475	727
475	728
475	729
475	730
475	732
475	733
475	734
475	735
475	736
475	737
475	739
475	740
475	741
475	742
475	744
475	751
475	752
475	764
475	766
475	772
475	773
475	780
475	781
475	785
475	786
475	788
475	792
475	793
475	794
475	796
475	800
475	801
475	802
475	808
475	809
475	810
475	813
475	814
475	832
475	841
475	869
475	878
475	887
475	902
476	477
476	478
476	479
476	480
476	481
476	482
476	483
476	484
476	485
476	486
476	487
476	488
476	491
476	492
476	493
476	495
476	496
476	497
476	498
476	499
476	500
476	501
476	503
476	507
476	508
476	509
476	510
476	511
476	512
476	516
476	517
476	518
476	519
476	530
476	563
476	601
476	613
476	614
476	616
476	620
476	621
476	622
476	623
476	624
476	629
476	630
476	631
476	632
476	633
476	634
476	635
476	636
476	637
476	638
476	639
476	640
476	641
476	642
476	643
476	644
476	645
476	646
476	647
476	648
476	649
476	650
476	651
476	652
476	653
476	654
476	655
476	656
476	657
476	660
476	661
476	663
476	664
476	665
476	666
476	668
476	672
476	673
476	674
476	675
476	677
476	678
476	679
476	680
476	681
476	682
476	684
476	685
476	686
476	687
476	691
476	692
476	694
476	695
476	696
476	697
476	698
476	699
476	701
476	702
476	703
476	704
476	705
476	707
476	708
476	709
476	711
476	712
476	713
476	714
476	715
476	716
476	717
476	718
476	719
476	720
476	723
476	725
476	726
476	727
476	729
476	730
476	732
476	733
476	734
476	739
476	740
476	741
476	742
476	744
476	752
476	754
476	759
476	761
476	764
476	765
476	766
476	772
476	773
476	774
476	779
476	785
476	786
476	788
476	791
476	792
476	793
476	794
476	795
476	796
476	800
476	809
476	814
476	841
476	873
476	886
477	478
477	482
477	483
477	485
477	486
477	487
477	488
477	491
477	492
477	493
477	497
477	499
477	501
477	503
477	507
477	508
477	509
477	510
477	512
477	513
477	516
477	517
477	518
477	530
477	563
477	613
477	614
477	615
477	616
477	618
477	619
477	623
477	624
477	629
477	636
477	651
477	652
477	656
477	657
477	659
477	687
477	697
477	704
477	705
477	706
477	714
477	715
477	716
477	720
477	722
477	723
477	724
477	727
477	751
477	753
477	766
477	767
477	780
477	786
477	794
477	795
477	796
477	797
477	800
477	802
477	808
477	821
477	831
477	836
477	839
477	888
478	479
478	481
478	482
478	483
478	485
478	486
478	487
478	488
478	491
478	492
478	493
478	495
478	496
478	497
478	498
478	499
478	500
478	501
478	502
478	503
478	507
478	509
478	510
478	511
478	512
478	513
478	516
478	517
478	518
478	519
478	523
478	563
478	601
478	603
478	607
478	613
478	614
478	615
478	616
478	617
478	618
478	619
478	620
478	621
478	622
478	623
478	624
478	625
478	630
478	632
478	633
478	634
478	636
478	640
478	642
478	644
478	645
478	646
478	647
478	648
478	649
478	651
478	652
478	653
478	654
478	655
478	656
478	657
478	658
478	659
478	660
478	661
478	662
478	663
478	664
478	666
478	672
478	673
478	674
478	680
478	682
478	683
478	684
478	686
478	687
478	693
478	694
478	696
478	697
478	698
478	699
478	700
478	704
478	705
478	706
478	707
478	708
478	709
478	712
478	713
478	714
478	715
478	716
478	717
478	719
478	720
478	722
478	723
478	724
478	725
478	726
478	727
478	728
478	729
478	731
478	732
478	733
478	734
478	735
478	736
478	737
478	738
478	741
478	742
478	743
478	744
478	747
478	748
478	750
478	751
478	752
478	753
478	754
478	755
478	756
478	757
478	758
478	759
478	760
478	761
478	762
478	763
478	767
478	769
478	772
478	773
478	774
478	775
478	776
478	779
478	780
478	782
478	783
478	786
478	788
478	791
478	797
478	798
478	800
478	806
478	808
478	810
478	811
478	812
478	813
478	814
478	815
478	816
478	821
478	822
478	823
478	824
478	825
478	826
478	827
478	829
478	834
478	835
478	836
478	837
478	839
478	840
478	841
478	843
478	844
478	845
478	852
478	856
478	857
478	859
478	860
478	861
478	862
478	863
478	865
478	869
478	870
478	872
478	876
478	877
478	879
478	884
478	886
478	889
478	891
478	938
479	480
479	481
479	482
479	483
479	484
479	485
479	491
479	492
479	495
479	496
479	497
479	499
479	500
479	501
479	502
479	503
479	507
479	508
479	509
479	510
479	512
479	518
479	523
479	563
479	613
479	614
479	616
479	621
479	622
479	624
479	628
479	629
479	630
479	631
479	632
479	633
479	634
479	635
479	636
479	637
479	638
479	639
479	640
479	642
479	643
479	644
479	645
479	646
479	647
479	648
479	649
479	650
479	651
479	652
479	653
479	654
479	655
479	656
479	657
479	660
479	661
479	663
479	664
479	665
479	666
479	668
479	669
479	671
479	672
479	673
479	674
479	677
479	678
479	679
479	680
479	681
479	682
479	683
479	684
479	685
479	686
479	687
479	690
479	691
479	692
479	693
479	694
479	695
479	696
479	697
479	698
479	699
479	700
479	701
479	702
479	703
479	704
479	705
479	707
479	708
479	711
479	712
479	713
479	714
479	715
479	716
479	717
479	719
479	723
479	726
479	727
479	728
479	729
479	730
479	732
479	734
479	735
479	740
479	741
479	742
479	751
479	754
479	765
479	773
479	775
479	780
479	785
479	786
479	788
479	792
479	793
479	794
479	795
479	796
479	797
479	798
479	799
480	481
480	482
480	492
480	493
480	495
480	496
480	500
480	501
480	510
480	511
480	623
480	630
480	631
480	632
480	633
480	634
480	636
480	638
480	639
480	640
480	641
480	642
480	643
480	644
480	645
480	646
480	647
480	648
480	649
480	650
480	651
480	653
480	654
480	663
480	666
480	669
480	671
480	672
480	674
480	675
480	678
480	680
480	681
480	682
480	684
480	685
480	686
480	687
480	691
480	693
480	694
480	700
480	703
480	711
480	731
480	732
480	737
480	738
480	739
480	761
480	768
480	806
480	809
481	482
481	483
481	484
481	485
481	487
481	488
481	491
481	492
481	493
481	494
481	495
481	496
481	497
481	498
481	499
481	500
481	501
481	502
481	503
481	507
481	509
481	510
481	511
481	513
481	516
481	518
481	519
481	523
481	530
481	563
481	601
481	603
481	613
481	614
481	615
481	616
481	617
481	619
481	620
481	621
481	622
481	623
481	624
481	627
481	629
481	630
481	631
481	632
481	633
481	634
481	636
481	638
481	639
481	640
481	641
481	642
481	643
481	644
481	645
481	646
481	647
481	648
481	649
481	650
481	651
481	652
481	653
481	654
481	655
481	656
481	658
481	659
481	660
481	661
481	662
481	663
481	665
481	669
481	671
481	672
481	673
481	674
481	675
481	676
481	681
481	682
481	683
481	684
481	685
481	686
481	687
481	692
481	693
481	694
481	695
481	696
481	697
481	699
481	700
481	701
481	702
481	703
481	704
481	705
481	708
481	709
481	710
481	711
481	712
481	713
481	714
481	715
481	716
481	717
481	718
481	719
481	720
481	722
481	723
481	724
481	726
481	727
481	729
481	730
481	731
481	732
481	733
481	734
481	735
481	736
481	737
481	738
481	739
481	741
481	742
481	744
481	745
481	747
481	749
481	752
481	753
481	759
481	760
481	761
481	762
481	764
481	766
481	767
481	768
481	773
481	774
481	776
481	779
481	782
481	785
481	788
481	793
481	800
481	803
481	805
481	806
481	808
481	810
481	811
481	818
481	821
481	830
481	833
481	834
481	839
481	843
481	846
481	857
481	860
481	861
482	483
482	484
482	485
482	491
482	492
482	493
482	495
482	496
482	497
482	499
482	501
482	507
482	508
482	509
482	510
482	516
482	518
482	523
482	530
482	563
482	601
482	613
482	614
482	615
482	620
482	621
482	622
482	628
482	629
482	630
482	631
482	632
482	633
482	634
482	635
482	636
482	637
482	640
482	641
482	642
482	643
482	644
482	645
482	646
482	647
482	648
482	649
482	650
482	651
482	652
482	653
482	654
482	655
482	656
482	657
482	659
482	660
482	661
482	662
482	663
482	666
482	672
482	673
482	674
482	678
482	679
482	680
482	681
482	682
482	683
482	684
482	685
482	686
482	687
482	690
482	691
482	692
482	694
482	695
482	696
482	697
482	698
482	699
482	701
482	702
482	703
482	704
482	705
482	707
482	708
482	709
482	711
482	712
482	713
482	714
482	715
482	716
482	717
482	718
482	719
482	720
482	722
482	723
482	725
482	726
482	727
482	729
482	730
482	732
482	734
482	739
482	740
482	741
482	742
482	743
482	744
482	745
482	751
482	754
482	757
482	759
482	764
482	765
482	766
482	767
482	768
482	773
482	775
482	780
482	785
482	786
482	787
482	788
482	792
482	793
482	794
482	795
482	796
482	800
482	801
482	802
482	805
482	809
482	810
482	830
482	831
482	841
482	871
482	872
482	878
482	885
483	484
483	485
483	486
483	487
483	488
483	491
483	492
483	493
483	495
483	496
483	497
483	498
483	499
483	500
483	501
483	507
483	508
483	509
483	510
483	511
483	512
483	516
483	517
483	518
483	519
483	523
483	530
483	563
483	601
483	613
483	614
483	615
483	619
483	620
483	621
483	622
483	628
483	629
483	630
483	631
483	632
483	633
483	634
483	635
483	636
483	640
483	641
483	642
483	643
483	644
483	645
483	646
483	647
483	648
483	649
483	650
483	651
483	652
483	653
483	654
483	655
483	656
483	657
483	658
483	659
483	660
483	661
483	662
483	663
483	664
483	665
483	666
483	668
483	669
483	672
483	673
483	674
483	678
483	679
483	680
483	683
483	684
483	685
483	686
483	687
483	692
483	693
483	694
483	695
483	696
483	697
483	698
483	699
483	700
483	701
483	702
483	703
483	704
483	705
483	707
483	708
483	709
483	711
483	712
483	713
483	714
483	715
483	716
483	717
483	718
483	719
483	720
483	722
483	723
483	725
483	726
483	727
483	728
483	729
483	730
483	731
483	732
483	734
483	735
483	737
483	739
483	740
483	741
483	742
483	743
483	744
483	745
483	747
483	748
483	749
483	750
483	751
483	754
483	757
483	758
483	759
483	764
483	765
483	766
483	768
483	769
483	772
483	773
483	774
483	775
483	780
483	785
483	786
483	787
483	788
483	791
483	792
483	793
483	794
483	795
483	796
483	798
483	800
483	801
483	802
483	806
483	809
483	810
483	814
483	818
483	830
483	831
483	841
483	845
483	870
483	871
483	873
483	878
483	879
483	884
483	885
483	886
483	887
483	888
483	890
483	892
484	485
484	491
484	495
484	501
484	507
484	508
484	509
484	636
484	646
484	647
484	648
484	649
484	650
484	651
484	652
484	653
484	654
484	655
484	656
484	684
484	687
484	694
484	696
484	701
484	702
484	703
484	709
484	712
484	713
484	714
484	715
484	716
484	720
484	723
484	730
484	740
484	741
484	742
484	765
484	785
484	786
484	792
484	793
484	794
484	800
484	801
484	809
484	830
484	831
484	871
484	888
485	486
485	487
485	488
485	491
485	492
485	495
485	496
485	497
485	498
485	499
485	500
485	501
485	507
485	508
485	509
485	510
485	511
485	512
485	516
485	517
485	518
485	523
485	530
485	563
485	613
485	614
485	620
485	621
485	622
485	623
485	630
485	631
485	632
485	633
485	634
485	636
485	639
485	640
485	641
485	642
485	643
485	644
485	645
485	646
485	647
485	648
485	649
485	650
485	651
485	652
485	653
485	654
485	655
485	656
485	657
485	659
485	661
485	662
485	664
485	672
485	673
485	678
485	680
485	681
485	682
485	685
485	686
485	687
485	693
485	694
485	695
485	696
485	697
485	698
485	699
485	702
485	703
485	704
485	705
485	707
485	708
485	709
485	712
485	713
485	714
485	715
485	716
485	717
485	718
485	719
485	720
485	721
485	722
485	723
485	725
485	726
485	727
485	728
485	729
485	730
485	731
485	732
485	734
485	735
485	739
485	740
485	741
485	742
485	743
485	744
485	747
485	751
485	763
485	764
485	765
485	766
485	767
485	768
485	772
485	773
485	774
485	776
485	778
485	780
485	785
485	786
485	788
485	792
485	793
485	794
485	795
485	796
485	800
485	801
485	805
485	806
485	809
485	810
485	815
485	830
485	831
485	871
485	872
485	879
485	885
485	886
485	888
485	891
486	487
486	488
486	491
486	492
486	493
486	496
486	497
486	498
486	499
486	500
486	501
486	502
486	503
486	507
486	509
486	510
486	511
486	512
486	513
486	516
486	517
486	518
486	523
486	563
486	601
486	613
486	614
486	615
486	616
486	617
486	618
486	619
486	620
486	621
486	622
486	623
486	624
486	625
486	630
486	634
486	636
486	642
486	649
486	651
486	652
486	654
486	655
486	656
486	657
486	660
486	663
486	666
486	673
486	680
486	687
486	696
486	697
486	698
486	699
486	705
486	706
486	707
486	708
486	709
486	714
486	717
486	723
486	724
486	725
486	726
486	727
486	728
486	729
486	731
486	732
486	733
486	737
486	738
486	751
486	752
486	753
486	754
486	757
486	760
486	762
486	769
486	772
486	773
486	774
486	775
486	779
486	780
486	788
486	791
486	796
486	797
486	811
486	812
486	814
486	821
486	822
486	824
486	825
486	826
486	835
486	836
486	839
486	840
486	841
486	845
486	862
486	865
486	870
486	872
486	877
486	879
486	884
486	891
487	488
487	489
487	493
487	494
487	495
487	497
487	498
487	499
487	500
487	501
487	502
487	503
487	507
487	509
487	510
487	511
487	512
487	513
487	516
487	517
487	518
487	519
487	523
487	563
487	602
487	603
487	613
487	616
487	617
487	618
487	620
487	621
487	622
487	623
487	624
487	625
487	636
487	640
487	642
487	651
487	654
487	655
487	660
487	661
487	662
487	664
487	678
487	696
487	698
487	699
487	701
487	707
487	708
487	715
487	726
487	727
487	728
487	729
487	731
487	732
487	734
487	735
487	736
487	737
487	748
487	749
487	751
487	752
487	755
487	756
487	757
487	758
487	759
487	760
487	761
487	762
487	773
487	774
487	775
487	776
487	777
487	778
487	779
487	781
487	782
487	783
487	790
487	791
487	797
487	799
487	804
487	806
487	813
487	814
487	815
487	816
487	826
487	827
487	828
487	829
487	840
487	842
487	844
487	845
487	846
487	847
487	848
487	849
487	850
487	852
487	853
487	856
487	867
487	869
487	870
487	872
487	875
487	877
487	879
487	882
487	883
487	885
487	892
487	898
487	899
487	900
487	905
487	907
487	908
487	912
487	914
487	922
487	923
487	931
487	937
487	950
487	951
488	489
488	493
488	494
488	495
488	497
488	498
488	499
488	500
488	501
488	502
488	503
488	507
488	509
488	510
488	511
488	512
488	513
488	516
488	517
488	518
488	519
488	523
488	603
488	607
488	613
488	616
488	617
488	618
488	621
488	622
488	623
488	625
488	632
488	636
488	640
488	645
488	654
488	660
488	661
488	662
488	664
488	688
488	698
488	699
488	707
488	708
488	715
488	726
488	727
488	728
488	729
488	731
488	732
488	734
488	735
488	736
488	737
488	738
488	752
488	755
488	756
488	758
488	759
488	760
488	761
488	762
488	773
488	774
488	775
488	776
488	777
488	778
488	779
488	782
488	783
488	784
488	790
488	791
488	799
488	804
488	806
488	811
488	813
488	814
488	815
488	816
488	817
488	828
488	829
488	837
488	841
488	842
488	845
488	847
488	848
488	849
488	850
488	852
488	853
488	856
488	857
488	865
488	869
488	870
488	872
488	875
488	876
488	877
488	882
488	885
488	892
488	899
488	900
488	902
488	905
488	907
488	908
488	909
488	910
488	911
488	912
488	914
488	917
488	932
488	937
488	951
488	952
488	953
488	954
489	522
489	537
489	546
490	505
490	521
490	532
490	533
490	544
490	546
490	559
490	561
490	566
490	569
490	572
490	573
490	575
490	580
490	582
490	583
490	584
491	492
491	493
491	494
491	495
491	496
491	497
491	498
491	499
491	500
491	501
491	502
491	507
491	508
491	509
491	510
491	511
491	512
491	516
491	518
491	519
491	523
491	530
491	563
491	601
491	613
491	614
491	615
491	619
491	620
491	621
491	622
491	623
491	624
491	627
491	629
491	630
491	632
491	633
491	634
491	636
491	638
491	639
491	640
491	641
491	642
491	643
491	644
491	645
491	646
491	647
491	648
491	649
491	650
491	651
491	652
491	653
491	654
491	655
491	656
491	657
491	658
491	659
491	660
491	661
491	662
491	663
491	664
491	666
491	668
491	669
491	672
491	673
491	674
491	678
491	679
491	680
491	681
491	682
491	683
491	684
491	685
491	686
491	687
491	691
491	693
491	694
491	695
491	696
491	697
491	698
491	699
491	700
491	701
491	702
491	703
491	704
491	705
491	706
491	707
491	708
491	709
491	710
491	711
491	712
491	713
491	714
491	715
491	716
491	717
491	718
491	719
491	720
491	722
491	723
491	724
491	725
491	726
491	727
491	728
491	729
491	730
491	731
491	732
491	733
491	734
491	735
491	736
491	737
491	738
491	739
491	740
491	741
491	742
491	743
491	744
491	747
491	748
491	749
491	750
491	751
491	752
491	753
491	754
491	756
491	757
491	758
491	759
491	761
491	763
491	764
491	766
491	767
491	768
491	772
491	773
491	774
491	775
491	776
491	779
491	780
491	782
491	785
491	786
491	788
491	792
491	793
491	794
491	796
491	798
491	799
491	800
491	801
491	804
491	805
491	806
491	810
491	811
491	813
491	814
491	815
491	818
491	831
491	841
491	844
491	848
491	856
491	869
491	870
491	872
491	873
491	878
491	884
491	885
491	898
491	899
491	900
492	493
492	494
492	495
492	496
492	497
492	498
492	499
492	500
492	501
492	502
492	503
492	507
492	509
492	510
492	511
492	512
492	513
492	516
492	517
492	518
492	519
492	523
492	530
492	563
492	601
492	603
492	613
492	614
492	615
492	616
492	617
492	619
492	620
492	621
492	622
492	623
492	624
492	625
492	627
492	630
492	632
492	633
492	634
492	640
492	642
492	643
492	644
492	645
492	646
492	647
492	648
492	649
492	651
492	652
492	653
492	654
492	655
492	656
492	657
492	658
492	659
492	660
492	661
492	662
492	663
492	664
492	666
492	672
492	674
492	675
492	680
492	683
492	684
492	685
492	686
492	687
492	688
492	689
492	695
492	696
492	697
492	698
492	699
492	700
492	702
492	704
492	705
492	706
492	707
492	708
492	709
492	713
492	714
492	715
492	716
492	717
492	718
492	719
492	720
492	721
492	722
492	723
492	724
492	725
492	726
492	727
492	728
492	729
492	730
492	731
492	732
492	733
492	734
492	735
492	736
492	737
492	738
492	740
492	741
492	742
492	743
492	744
492	745
492	746
492	747
492	748
492	749
492	750
492	751
492	752
492	753
492	754
492	757
492	758
492	759
492	761
492	763
492	765
492	766
492	767
492	768
492	769
492	771
492	772
492	773
492	774
492	775
492	776
492	779
492	780
492	787
492	788
492	794
492	795
492	797
492	798
492	800
492	801
492	802
492	803
492	805
492	806
492	807
492	808
492	810
492	811
492	812
492	814
492	815
492	818
492	819
492	820
492	821
492	826
492	831
492	832
492	834
492	835
492	836
492	837
492	839
492	841
492	843
492	850
492	861
492	863
492	868
492	869
492	870
492	872
492	876
492	884
492	887
492	893
492	896
492	901
492	916
492	917
492	925
492	926
492	927
492	928
492	932
492	933
493	494
493	495
493	496
493	497
493	498
493	499
493	500
493	501
493	502
493	503
493	510
493	511
493	512
493	513
493	516
493	517
493	518
493	519
493	523
493	530
493	563
493	601
493	604
493	613
493	614
493	615
493	616
493	617
493	618
493	619
493	620
493	621
493	622
493	623
493	624
493	625
493	627
493	632
493	633
493	634
493	640
493	641
493	642
493	645
493	647
493	651
493	652
493	653
493	654
493	655
493	656
493	657
493	658
493	659
493	660
493	661
493	662
493	664
493	672
493	674
493	681
493	682
493	683
493	696
493	697
493	698
493	699
493	702
493	704
493	705
493	706
493	707
493	708
493	709
493	714
493	715
493	717
493	718
493	719
493	720
493	721
493	722
493	723
493	724
493	725
493	726
493	727
493	729
493	731
493	732
493	733
493	734
493	735
493	736
493	737
493	738
493	739
493	741
493	743
493	744
493	745
493	746
493	747
493	748
493	749
493	750
493	751
493	752
493	753
493	754
493	755
493	756
493	758
493	759
493	760
493	761
493	762
493	763
493	764
493	766
493	767
493	768
493	769
493	770
493	771
493	772
493	773
493	774
493	775
493	776
493	777
493	778
493	779
493	780
493	781
493	782
493	783
493	784
493	786
493	787
493	788
493	789
493	791
493	794
493	795
493	796
493	797
493	799
493	800
493	801
493	802
493	803
493	804
493	806
493	807
493	808
493	810
493	811
493	812
493	813
493	814
493	815
493	818
493	819
493	820
493	821
493	822
493	823
493	824
493	826
493	828
493	829
493	831
493	832
493	833
493	834
493	835
493	836
493	837
493	838
493	839
493	840
493	842
493	843
493	844
493	846
493	847
493	848
493	849
493	850
493	851
493	853
493	855
493	856
493	857
493	860
493	861
493	862
493	863
493	864
493	865
493	866
493	867
493	869
493	873
493	874
493	877
493	878
493	883
493	885
493	886
493	892
493	893
493	894
493	896
493	897
493	898
493	899
493	900
493	901
493	902
493	905
493	906
493	907
493	908
493	912
493	913
493	914
493	917
493	922
493	925
493	926
493	927
493	928
493	930
493	931
493	932
493	933
493	936
493	937
493	938
493	941
493	943
493	945
493	949
493	951
493	955
493	956
494	495
494	496
494	499
494	500
494	501
494	502
494	503
494	510
494	511
494	513
494	516
494	517
494	518
494	519
494	523
494	563
494	581
494	602
494	603
494	605
494	606
494	607
494	613
494	616
494	617
494	618
494	619
494	621
494	622
494	623
494	624
494	625
494	627
494	632
494	633
494	634
494	640
494	642
494	643
494	648
494	653
494	654
494	655
494	656
494	659
494	660
494	661
494	662
494	663
494	664
494	672
494	674
494	685
494	687
494	698
494	699
494	704
494	706
494	707
494	708
494	718
494	719
494	720
494	722
494	726
494	729
494	731
494	732
494	734
494	735
494	736
494	737
494	738
494	739
494	743
494	748
494	755
494	756
494	760
494	761
494	762
494	763
494	776
494	777
494	778
494	779
494	781
494	782
494	783
494	784
494	785
494	789
494	790
494	791
494	797
494	799
494	804
494	806
494	810
494	811
494	812
494	813
494	814
494	815
494	816
494	817
494	821
494	824
494	825
494	826
494	828
494	829
494	842
494	843
494	844
494	846
494	847
494	848
494	849
494	850
494	851
494	852
494	853
494	854
494	855
494	856
494	857
494	859
494	860
494	861
494	863
494	865
494	866
494	867
494	868
494	869
494	875
494	876
494	877
494	881
494	882
494	883
494	885
494	892
494	897
494	898
494	899
494	900
494	902
494	903
494	904
494	905
494	907
494	908
494	909
494	910
494	911
494	912
494	913
494	914
494	915
494	919
494	921
494	922
494	923
494	924
494	931
494	932
494	933
494	934
494	937
494	938
494	939
494	940
494	941
494	944
494	945
494	947
494	949
494	950
494	951
494	952
494	953
494	954
494	955
494	956
494	962
494	968
494	971
494	972
494	977
494	987
494	992
494	994
494	995
494	996
494	998
494	1001
495	496
495	497
495	498
495	499
495	500
495	501
495	502
495	503
495	507
495	508
495	509
495	510
495	511
495	512
495	513
495	516
495	517
495	518
495	519
495	523
495	563
495	603
495	607
495	613
495	614
495	615
495	616
495	617
495	618
495	619
495	620
495	621
495	622
495	623
495	624
495	625
495	627
495	630
495	632
495	633
495	634
495	635
495	636
495	638
495	639
495	640
495	641
495	642
495	643
495	644
495	645
495	646
495	647
495	648
495	649
495	650
495	651
495	652
495	653
495	654
495	655
495	656
495	657
495	658
495	659
495	660
495	661
495	662
495	663
495	664
495	669
495	670
495	671
495	672
495	674
495	675
495	681
495	682
495	683
495	684
495	686
495	687
495	693
495	694
495	695
495	696
495	697
495	699
495	700
495	701
495	702
495	703
495	704
495	706
495	707
495	708
495	710
495	711
495	712
495	713
495	715
495	716
495	717
495	718
495	719
495	721
495	722
495	723
495	724
495	725
495	726
495	727
495	730
495	731
495	732
495	733
495	734
495	735
495	736
495	737
495	738
495	739
495	741
495	743
495	744
495	745
495	748
495	749
495	751
495	752
495	753
495	754
495	756
495	757
495	760
495	761
495	762
495	763
495	764
495	766
495	767
495	768
495	771
495	774
495	776
495	779
495	782
495	785
495	788
495	791
495	797
495	799
495	803
495	804
495	805
495	806
495	808
495	809
495	810
495	811
495	812
495	814
495	817
495	818
495	819
495	820
495	821
495	822
495	823
495	824
495	826
495	829
495	830
495	831
495	832
495	833
495	834
495	835
495	836
495	837
495	838
495	839
495	840
495	841
495	842
495	843
495	844
495	845
495	846
495	847
495	848
495	849
495	850
495	851
495	852
495	853
495	854
495	855
495	856
495	857
495	858
495	859
496	497
496	498
496	501
496	502
496	503
496	507
496	508
496	509
496	510
496	511
496	512
496	516
496	523
496	530
496	563
496	601
496	603
496	613
496	614
496	615
496	620
496	621
496	622
496	630
496	632
496	633
496	634
496	636
496	638
496	639
496	640
496	641
496	642
496	643
496	644
496	645
496	646
496	647
496	648
496	649
496	650
496	651
496	652
496	653
496	654
496	655
496	656
496	657
496	659
496	660
496	661
496	662
496	663
496	664
496	666
496	672
496	673
496	674
496	679
496	683
496	684
496	685
496	686
496	687
496	692
496	693
496	694
496	695
496	696
496	697
496	698
496	699
496	700
496	701
496	702
496	703
496	704
496	705
496	707
496	708
496	711
496	712
496	713
496	714
496	715
496	716
496	717
496	718
496	719
496	720
496	721
496	722
496	723
496	725
496	726
496	727
496	728
496	729
496	730
496	731
496	732
496	733
496	734
496	736
496	737
496	738
496	739
496	741
496	742
496	743
496	744
496	745
496	747
496	748
496	752
496	758
496	759
496	761
496	764
496	766
496	768
496	769
496	772
496	773
496	779
496	782
496	785
496	788
496	796
496	798
496	800
496	802
496	806
496	809
496	810
496	818
496	830
496	841
496	870
496	871
496	872
497	498
497	499
497	500
497	501
497	502
497	503
497	507
497	508
497	509
497	510
497	511
497	512
497	513
497	516
497	517
497	518
497	523
497	530
497	563
497	601
497	613
497	614
497	615
497	616
497	617
497	618
497	619
497	620
497	621
497	622
497	623
497	624
497	625
497	629
497	630
497	631
497	632
497	633
497	634
497	636
497	640
497	642
497	644
497	645
497	646
497	647
497	648
497	649
497	650
497	651
497	652
497	654
497	655
497	656
497	657
497	659
497	660
497	661
497	662
497	664
497	672
497	674
497	684
497	685
497	686
497	687
497	693
497	694
497	696
497	697
497	698
497	699
497	700
497	702
497	704
497	705
497	706
497	707
497	708
497	709
497	711
497	712
497	714
497	715
497	716
497	717
497	720
497	722
497	723
497	724
497	725
497	726
497	727
497	728
497	729
497	730
497	731
497	733
497	734
497	735
497	737
497	740
497	741
497	742
497	743
497	744
497	745
497	747
497	750
497	751
497	752
497	753
497	754
497	757
497	758
497	759
497	761
497	763
497	766
497	767
497	769
497	771
497	772
497	773
497	774
497	775
497	780
497	785
497	787
497	788
497	791
497	793
497	796
497	797
497	798
497	800
497	801
497	802
497	806
497	808
497	810
497	811
497	812
497	814
497	820
497	821
497	822
497	823
497	824
497	826
497	827
497	834
497	835
497	836
497	837
497	839
497	840
497	841
497	845
497	860
497	861
497	862
497	868
497	869
497	870
497	872
497	873
497	878
497	879
497	883
497	884
497	886
497	889
497	891
497	895
497	901
497	917
497	925
497	929
497	938
498	499
498	500
498	501
498	502
498	503
498	507
498	508
498	510
498	511
498	512
498	513
498	516
498	517
498	518
498	519
498	523
498	563
498	601
498	613
498	615
498	616
498	618
498	620
498	621
498	622
498	623
498	633
498	636
498	643
498	654
498	656
498	660
498	661
498	662
498	664
498	672
498	674
498	697
498	698
498	699
498	704
498	705
498	707
498	708
498	709
498	715
498	716
498	717
498	718
498	724
498	725
498	726
498	727
498	728
498	729
498	732
498	733
498	734
498	735
498	736
498	738
498	741
498	742
498	751
498	752
498	753
498	754
498	759
498	760
498	772
498	773
498	774
498	775
498	779
498	780
498	787
498	788
498	791
498	798
498	799
498	804
498	806
498	812
498	813
498	814
498	821
498	822
498	824
498	827
498	841
498	845
498	847
498	852
498	856
498	859
498	860
498	862
498	863
498	869
498	870
498	872
498	877
498	879
498	883
498	936
499	500
499	501
499	502
499	503
499	507
499	510
499	511
499	512
499	513
499	516
499	517
499	518
499	519
499	523
499	530
499	563
499	601
499	613
499	614
499	615
499	616
499	617
499	618
499	619
499	620
499	621
499	622
499	623
499	624
499	625
499	627
499	632
499	633
499	636
499	638
499	639
499	640
499	641
499	645
499	646
499	647
499	648
499	652
499	654
499	655
499	656
499	657
499	659
499	660
499	661
499	662
499	663
499	664
499	665
499	671
499	672
499	673
499	674
499	675
499	681
499	682
499	685
499	686
499	687
499	696
499	697
499	698
499	699
499	701
499	702
499	704
499	705
499	706
499	707
499	708
499	709
499	715
499	717
499	719
499	720
499	722
499	723
499	724
499	725
499	726
499	727
499	728
499	729
499	731
499	732
499	733
499	734
499	735
499	736
499	737
499	738
499	739
499	745
499	747
499	750
499	751
499	752
499	753
499	754
499	755
499	756
499	757
499	759
499	760
499	761
499	762
499	763
499	764
499	768
499	769
499	771
499	772
499	773
499	774
499	775
499	776
499	777
499	778
499	779
499	780
499	782
499	788
499	791
499	797
499	799
499	804
499	805
499	806
499	808
499	810
499	811
499	812
499	813
499	814
499	815
499	816
499	817
499	818
499	820
499	821
499	822
499	823
499	824
499	825
499	826
499	827
499	829
499	833
499	834
499	835
499	836
499	837
499	839
499	840
499	841
499	842
499	843
499	844
499	845
499	846
499	848
499	853
499	855
499	856
499	857
499	859
499	860
499	861
499	862
499	863
499	865
499	866
499	867
499	868
499	869
499	872
499	873
499	877
499	878
499	879
499	883
499	884
499	885
499	886
499	889
499	891
499	899
499	900
499	902
499	903
499	908
499	913
499	914
499	917
499	923
499	925
499	929
499	936
499	938
499	940
499	941
499	943
499	959
499	962
500	501
500	502
500	503
500	510
500	511
500	512
500	513
500	516
500	518
500	519
500	523
500	530
500	563
500	601
500	613
500	614
500	615
500	616
500	617
500	618
500	619
500	620
500	621
500	622
500	623
500	624
500	625
500	632
500	633
500	639
500	640
500	641
500	645
500	652
500	654
500	655
500	656
500	657
500	659
500	660
500	661
500	662
500	664
500	672
500	675
500	681
500	686
500	687
500	696
500	697
500	698
500	699
500	702
500	704
500	705
500	706
500	707
500	708
500	709
500	714
500	717
500	719
500	720
500	721
500	722
500	723
500	724
500	725
500	726
500	727
500	729
500	731
500	732
500	733
500	734
500	735
500	736
500	737
500	738
500	739
500	746
500	747
500	750
500	751
500	752
500	753
500	754
500	755
500	756
500	757
500	759
500	760
500	761
500	762
500	763
500	764
500	767
500	768
500	769
500	771
500	772
500	773
500	774
500	775
500	776
500	779
500	780
500	782
500	784
500	788
500	791
500	796
500	797
500	799
500	800
500	804
500	806
500	808
500	810
500	811
500	812
500	813
500	814
500	815
500	817
500	818
500	819
500	820
500	821
500	822
500	823
500	824
500	825
500	826
500	828
500	829
500	832
500	833
500	834
500	835
500	836
500	837
500	838
500	839
500	840
500	841
500	843
500	844
500	845
500	846
500	847
500	848
500	850
500	853
500	854
500	855
500	856
500	857
500	858
500	859
500	860
500	861
500	862
500	863
500	864
500	865
500	866
500	867
500	869
500	870
500	872
500	873
500	877
500	878
500	879
500	884
500	885
500	886
500	889
500	891
500	893
500	899
500	900
500	903
500	907
500	908
500	910
500	913
500	914
500	921
500	922
500	925
500	928
500	929
500	933
500	934
500	935
500	936
500	938
500	940
500	941
500	943
500	944
500	947
500	949
500	954
500	957
500	959
500	961
500	963
500	964
500	965
500	966
500	967
500	968
500	969
500	970
500	971
500	972
500	973
500	974
500	975
500	976
501	502
501	503
501	507
501	508
501	509
501	510
501	511
501	512
501	513
501	516
501	517
501	518
501	519
501	523
501	530
501	563
501	601
501	603
501	607
501	613
501	614
501	615
501	616
501	617
501	618
501	619
501	620
501	621
501	622
501	623
501	624
501	625
501	626
501	627
501	630
501	632
501	633
501	634
501	639
501	640
501	642
501	643
501	644
501	645
501	646
501	647
501	648
501	649
501	650
501	651
501	652
501	653
501	654
501	655
501	656
501	657
501	658
501	659
501	660
501	661
501	662
501	663
501	664
501	666
501	672
501	673
501	674
501	681
501	682
501	683
501	684
501	685
501	686
501	687
501	694
501	695
501	696
501	697
501	698
501	699
501	702
501	703
501	704
501	705
501	706
501	707
501	708
501	709
501	711
501	714
501	715
501	716
501	717
501	718
501	719
501	720
501	721
501	722
501	723
501	724
501	725
501	726
501	727
501	728
501	729
501	731
501	732
501	733
501	734
501	735
501	736
501	737
501	738
501	739
501	742
501	743
501	744
501	745
501	747
501	748
501	749
501	750
501	751
501	752
501	753
501	754
501	755
501	756
501	757
501	758
501	759
501	760
501	761
501	762
501	763
501	767
501	769
501	770
501	771
501	772
501	773
501	774
501	775
501	776
501	777
501	778
501	779
501	780
501	781
501	782
501	784
501	786
501	788
501	789
501	791
501	794
501	795
501	796
501	797
501	798
501	799
501	800
501	802
501	804
501	806
501	808
501	810
501	811
501	812
501	813
501	814
501	815
501	818
501	819
501	820
501	821
501	822
501	823
501	824
501	825
501	826
501	827
501	828
501	829
501	833
501	834
501	835
501	836
501	837
501	839
501	840
501	841
501	842
501	843
501	844
501	845
501	846
501	847
501	848
501	849
501	850
501	855
501	856
501	857
501	858
501	859
501	860
501	861
501	862
501	863
501	865
501	866
501	868
501	869
501	870
501	872
501	873
501	874
501	875
501	876
501	877
501	878
501	879
501	882
501	883
501	884
501	885
501	886
501	887
501	888
501	889
501	891
501	892
501	897
501	898
501	899
501	900
501	901
501	904
501	905
501	907
501	911
501	919
501	922
501	925
501	926
501	932
501	949
502	503
502	507
502	508
502	510
502	511
502	512
502	513
502	516
502	517
502	518
502	519
502	523
502	563
502	581
502	602
502	603
502	604
502	605
502	606
502	607
502	613
502	616
502	617
502	618
502	619
502	620
502	621
502	622
502	623
502	624
502	625
502	627
502	630
502	632
502	633
502	634
502	638
502	640
502	642
502	648
502	649
502	652
502	653
502	654
502	655
502	656
502	657
502	659
502	660
502	661
502	662
502	664
502	669
502	673
502	684
502	685
502	687
502	697
502	698
502	699
502	701
502	704
502	707
502	708
502	715
502	717
502	718
502	719
502	720
502	722
502	724
502	725
502	726
502	728
502	729
502	731
502	732
502	734
502	735
502	736
502	737
502	738
502	741
502	743
502	748
502	749
502	752
502	755
502	756
502	758
502	759
502	760
502	761
502	762
502	763
502	771
502	773
502	774
502	775
502	776
502	777
502	778
502	779
502	780
502	781
502	782
502	783
502	784
502	788
502	789
502	790
502	791
502	799
502	804
502	806
502	811
502	812
502	813
502	814
502	815
502	816
502	817
502	821
502	823
502	824
502	825
502	826
502	827
502	828
502	829
502	836
502	837
502	842
502	843
502	844
502	845
502	846
502	847
502	848
502	849
502	850
502	851
502	852
502	853
502	854
502	855
502	856
502	857
502	858
502	860
502	862
502	863
502	865
502	867
502	869
502	870
502	872
502	874
502	875
502	876
502	877
502	881
502	882
502	883
502	885
502	892
502	897
502	898
502	899
502	900
502	902
502	904
502	905
502	906
502	907
502	908
502	909
502	910
502	911
502	912
502	913
502	914
502	915
502	919
502	920
502	921
502	922
502	923
502	924
502	930
502	931
502	932
502	934
502	936
502	937
502	938
502	939
502	940
502	941
502	942
502	944
502	949
502	950
502	952
502	954
502	955
502	956
502	959
502	968
502	969
502	970
502	971
502	972
502	974
502	977
502	978
502	980
502	987
502	988
502	992
502	993
502	996
502	1000
503	507
503	510
503	511
503	512
503	513
503	516
503	517
503	518
503	519
503	523
503	530
503	563
503	601
503	603
503	613
503	614
503	615
503	616
503	617
503	618
503	619
503	620
503	621
503	622
503	623
503	624
503	625
503	626
503	627
503	632
503	633
503	634
503	638
503	639
503	640
503	641
503	645
503	646
503	647
503	648
503	652
503	653
503	654
503	655
503	656
503	657
503	658
503	659
503	660
503	661
503	662
503	663
503	664
503	668
503	669
503	671
503	672
503	674
503	675
503	685
503	686
503	696
503	697
503	698
503	699
503	704
503	705
503	706
503	707
503	708
503	709
503	710
503	711
503	714
503	717
503	720
503	722
503	723
503	724
503	725
503	726
503	727
503	728
503	729
503	731
503	732
503	733
503	734
503	735
503	736
503	737
503	738
503	739
503	742
503	745
503	746
503	747
503	750
503	751
503	752
503	753
503	754
503	755
503	756
503	757
503	758
503	759
503	760
503	761
503	762
503	763
503	764
503	768
503	769
503	770
503	771
503	772
503	773
503	774
503	775
503	776
503	777
503	778
503	779
503	780
503	782
503	787
503	788
503	791
503	796
503	797
503	798
503	801
503	802
503	804
503	806
503	808
503	810
503	811
503	812
503	813
503	814
503	818
503	819
503	820
503	821
503	822
503	823
503	824
503	825
503	826
503	828
503	832
503	833
503	834
503	835
503	836
503	837
503	839
503	840
503	841
503	843
503	844
503	845
503	847
503	848
503	856
503	857
503	859
503	860
503	861
503	862
503	863
503	865
503	866
503	867
503	869
503	870
503	872
503	873
503	876
503	877
503	878
503	879
503	883
503	884
503	885
503	886
503	888
503	891
503	899
503	901
503	902
503	903
503	905
503	907
503	911
503	916
503	927
503	937
503	938
503	972
504	505
504	506
504	514
504	515
504	524
504	525
504	526
504	527
504	528
504	529
504	533
504	534
504	535
504	536
504	537
504	538
504	539
504	540
504	541
504	542
504	543
504	544
504	545
504	547
504	548
504	549
504	550
504	551
504	552
504	553
504	554
504	555
504	556
504	557
504	558
504	562
504	576
504	577
504	578
504	579
504	585
504	586
504	587
504	588
504	589
504	590
504	591
504	592
504	593
504	595
504	596
504	597
504	598
504	600
504	608
504	611
504	612
505	506
505	514
505	515
505	522
505	524
505	526
505	533
505	534
505	536
505	537
505	538
505	539
505	540
505	541
505	542
505	544
505	545
505	547
505	548
505	549
505	550
505	552
505	553
505	554
505	555
505	556
505	557
505	558
505	560
505	562
505	564
505	574
505	576
505	577
505	578
505	579
505	585
505	586
505	587
505	588
505	589
505	590
505	591
505	592
505	593
505	594
505	595
505	596
505	598
505	599
505	600
506	514
506	515
506	524
506	526
506	534
506	535
506	536
506	537
506	538
506	539
506	540
506	541
506	542
506	543
506	544
506	545
506	547
506	548
506	549
506	550
506	551
506	552
506	553
506	554
506	555
506	556
506	557
506	558
506	560
506	562
506	576
506	577
506	578
506	579
506	585
506	586
506	587
506	588
506	589
506	590
506	591
506	592
506	593
506	594
506	595
506	596
506	597
506	598
506	599
506	600
507	508
507	509
507	510
507	512
507	516
507	517
507	523
507	530
507	563
507	601
507	613
507	614
507	620
507	621
507	622
507	630
507	632
507	633
507	634
507	636
507	640
507	641
507	642
507	644
507	645
507	646
507	647
507	648
507	649
507	650
507	651
507	652
507	653
507	654
507	655
507	656
507	657
507	659
507	661
507	662
507	664
507	665
507	666
507	672
507	673
507	678
507	683
507	684
507	685
507	686
507	687
507	694
507	695
507	696
507	697
507	698
507	699
507	701
507	702
507	703
507	704
507	705
507	707
507	708
507	709
507	711
507	712
507	713
507	714
507	715
507	716
507	717
507	718
507	720
507	722
507	723
507	725
507	726
507	727
507	729
507	730
507	732
507	734
507	735
507	739
507	740
507	741
507	742
507	751
507	754
507	765
507	766
507	768
507	769
507	772
507	773
507	776
507	778
507	785
507	786
507	787
507	788
507	792
507	793
507	794
507	795
507	796
507	800
507	801
507	802
507	804
507	809
507	810
507	814
507	815
507	830
507	831
507	871
507	872
507	873
507	878
507	885
507	886
507	887
507	888
507	891
508	509
508	516
508	518
508	530
508	563
508	614
508	632
508	633
508	634
508	640
508	642
508	644
508	646
508	647
508	648
508	649
508	650
508	651
508	652
508	653
508	654
508	655
508	656
508	678
508	684
508	685
508	687
508	692
508	694
508	695
508	696
508	697
508	701
508	702
508	703
508	704
508	709
508	712
508	713
508	714
508	715
508	716
508	717
508	720
508	723
508	725
508	730
508	732
508	740
508	741
508	742
508	765
508	766
508	785
508	786
508	787
508	792
508	793
508	794
508	795
508	796
508	800
508	801
508	809
508	830
508	831
508	871
508	878
508	887
509	512
509	516
509	517
509	518
509	523
509	530
509	563
509	601
509	613
509	614
509	620
509	621
509	622
509	629
509	630
509	632
509	633
509	634
509	636
509	640
509	642
509	644
509	646
509	647
509	648
509	649
509	650
509	651
509	652
509	653
509	654
509	655
509	656
509	657
509	662
509	672
509	673
509	678
509	684
509	685
509	686
509	687
509	691
509	693
509	694
509	695
509	696
509	697
509	698
509	699
509	701
509	702
509	703
509	704
509	705
509	707
509	708
509	709
509	712
509	713
509	714
509	715
509	716
509	717
509	718
509	719
509	720
509	722
509	723
509	725
509	726
509	727
509	729
509	730
509	732
509	734
509	737
509	739
509	740
509	741
509	742
509	743
509	744
509	745
509	748
509	749
509	751
509	754
509	759
509	764
509	765
509	766
509	768
509	772
509	773
509	775
509	780
509	785
509	786
509	787
509	788
509	792
509	793
509	794
509	795
509	796
509	800
509	801
509	802
509	808
509	809
509	820
509	830
509	831
509	871
509	873
509	878
509	879
509	886
509	887
509	888
509	890
510	511
510	512
510	513
510	516
510	517
510	518
510	519
510	523
510	530
510	563
510	601
510	603
510	613
510	614
510	615
510	616
510	617
510	618
510	619
510	620
510	621
510	622
510	623
510	624
510	625
510	630
510	632
510	633
510	634
510	638
510	639
510	640
510	641
510	642
510	643
510	644
510	645
510	646
510	648
510	649
510	651
510	652
510	653
510	654
510	655
510	656
510	657
510	658
510	659
510	660
510	661
510	662
510	663
510	664
510	672
510	674
510	681
510	682
510	684
510	685
510	686
510	687
510	696
510	697
510	698
510	699
510	700
510	704
510	705
510	706
510	707
510	708
510	709
510	711
510	713
510	714
510	717
510	718
510	719
510	720
510	722
510	723
510	724
510	725
510	726
510	727
510	728
510	729
510	731
510	732
510	733
510	734
510	735
510	736
510	737
510	738
510	739
510	743
510	744
510	745
510	746
510	747
510	748
510	749
510	750
510	751
510	752
510	753
510	754
510	755
510	756
510	757
510	759
510	760
510	761
510	762
510	763
510	764
510	767
510	768
510	769
510	770
510	771
510	772
510	773
510	774
510	775
510	776
510	778
510	779
510	780
510	781
510	782
510	784
510	788
510	791
510	795
510	796
510	797
510	798
510	799
510	802
510	803
510	804
510	806
510	808
510	810
510	811
510	812
510	813
510	814
510	815
510	817
510	818
510	819
510	820
510	821
510	822
510	823
510	824
510	825
510	826
510	828
510	829
510	831
510	832
510	833
510	834
510	835
510	836
510	837
510	838
510	839
510	840
510	841
510	842
510	843
510	844
510	845
510	847
510	848
510	849
510	850
510	853
510	855
510	856
510	857
510	858
510	859
510	860
510	861
510	862
510	863
510	865
510	867
510	869
510	872
510	873
510	875
510	877
510	878
510	879
510	882
510	883
510	884
510	885
510	886
510	887
510	888
510	889
510	891
510	899
510	900
510	901
510	902
510	903
510	905
510	910
510	911
510	913
510	914
510	919
510	922
510	925
510	927
510	934
510	936
510	941
510	942
510	944
510	949
510	950
510	951
510	959
510	982
510	986
511	512
511	513
511	516
511	517
511	518
511	519
511	523
511	563
511	601
511	603
511	613
511	614
511	615
511	616
511	617
511	618
511	619
511	620
511	621
511	622
511	623
511	624
511	625
511	627
511	632
511	633
511	639
511	640
511	642
511	644
511	645
511	647
511	648
511	651
511	652
511	653
511	654
511	655
511	656
511	657
511	658
511	659
511	660
511	661
511	662
511	664
511	672
511	674
511	681
511	682
511	686
511	696
511	697
511	698
511	699
511	704
511	705
511	706
511	707
511	708
511	709
511	716
511	718
511	719
511	720
511	722
511	724
511	725
511	726
511	727
511	729
511	731
511	732
511	733
511	734
511	735
511	736
511	737
511	738
511	739
511	741
511	747
511	748
511	749
511	750
511	751
511	752
511	753
511	754
511	755
511	756
511	757
511	758
511	759
511	760
511	761
511	762
511	763
511	764
511	767
511	768
511	769
511	771
511	772
511	773
511	774
511	775
511	776
511	777
511	778
511	779
511	780
511	782
511	783
511	784
511	788
511	791
511	797
511	799
511	802
511	804
511	806
511	808
511	810
511	811
511	812
511	813
511	814
511	815
511	816
511	817
511	818
511	819
511	820
511	821
511	822
511	823
511	824
511	825
511	826
511	827
511	828
511	829
511	830
511	832
511	833
511	834
511	835
511	836
511	837
511	839
511	840
511	841
511	842
511	843
511	844
511	846
511	847
511	848
511	850
511	851
511	852
511	853
511	854
511	855
511	856
511	857
511	858
511	859
511	860
511	861
511	862
511	863
511	864
511	865
511	866
511	867
511	868
511	869
511	872
511	873
511	875
511	877
511	879
511	882
511	883
511	884
511	885
511	891
511	897
511	899
511	900
511	902
511	903
511	905
511	907
511	908
511	910
511	912
511	913
511	914
511	917
511	919
511	921
511	922
511	925
511	929
511	932
511	934
511	935
511	936
511	937
511	938
511	939
511	940
511	941
511	943
511	944
511	945
511	949
511	952
511	954
511	955
511	959
511	962
511	966
511	970
511	971
511	974
511	982
512	513
512	516
512	517
512	518
512	523
512	530
512	563
512	601
512	613
512	614
512	615
512	616
512	617
512	618
512	619
512	620
512	621
512	622
512	623
512	632
512	633
512	634
512	636
512	648
512	649
512	651
512	652
512	653
512	654
512	656
512	657
512	659
512	660
512	661
512	664
512	684
512	687
512	696
512	697
512	698
512	699
512	704
512	705
512	706
512	707
512	708
512	709
512	713
512	714
512	715
512	716
512	720
512	722
512	724
512	725
512	726
512	727
512	728
512	729
512	732
512	734
512	736
512	737
512	738
512	740
512	741
512	742
512	747
512	751
512	752
512	754
512	757
512	758
512	759
512	762
512	771
512	772
512	773
512	774
512	775
512	779
512	780
512	786
512	787
512	788
512	794
512	795
512	796
512	797
512	798
512	800
512	801
512	811
512	812
512	813
512	814
512	821
512	822
512	824
512	840
512	841
512	856
512	857
512	860
512	865
512	870
512	872
512	873
512	874
512	878
512	879
512	886
512	887
512	889
512	891
513	516
513	517
513	518
513	519
513	523
513	530
513	563
513	601
513	603
513	607
513	613
513	614
513	615
513	616
513	617
513	618
513	619
513	620
513	621
513	622
513	623
513	624
513	625
513	626
513	627
513	640
513	641
513	653
513	654
513	655
513	656
513	657
513	658
513	659
513	660
513	661
513	662
513	663
513	664
513	669
513	674
513	688
513	689
513	690
513	696
513	697
513	698
513	699
513	704
513	705
513	706
513	707
513	708
513	714
513	717
513	719
513	720
513	721
513	722
513	723
513	724
513	725
513	726
513	727
513	728
513	729
513	731
513	732
513	733
513	734
513	735
513	736
513	737
513	738
513	744
513	745
513	746
513	747
513	748
513	749
513	750
513	751
513	752
513	753
513	754
513	755
513	756
513	757
513	759
513	760
513	761
513	762
513	763
513	768
513	772
513	773
513	774
513	775
513	776
513	777
513	778
513	779
513	780
513	781
513	782
513	783
513	784
513	788
513	794
513	795
513	796
513	797
513	799
513	802
513	804
513	806
513	808
513	810
513	811
513	812
513	813
513	814
513	815
513	817
513	818
513	822
513	824
513	825
513	826
513	828
513	829
513	835
513	841
513	842
513	843
513	844
513	845
513	846
513	847
513	848
513	849
513	850
513	853
513	854
513	855
513	856
513	857
513	859
513	861
513	862
513	863
513	865
513	866
513	867
513	868
513	869
513	870
513	872
513	879
513	882
513	883
513	884
513	885
513	891
513	892
513	897
513	899
513	900
513	901
513	902
513	903
513	905
513	907
513	908
513	910
513	912
513	914
513	915
513	916
513	917
513	919
513	922
513	924
513	925
513	929
513	934
513	936
513	937
513	938
513	939
513	940
513	943
513	944
513	949
513	950
513	951
513	954
513	955
513	956
513	957
513	961
513	962
513	976
513	977
513	982
513	983
513	985
513	990
513	994
513	995
513	999
514	515
514	524
514	526
514	534
514	535
514	536
514	537
514	538
514	539
514	540
514	541
514	542
514	543
514	544
514	545
514	548
514	549
514	550
514	552
514	553
514	554
514	555
514	556
514	557
514	560
514	562
514	576
514	577
514	578
514	579
514	585
514	586
514	587
514	588
514	589
514	590
514	591
514	592
514	593
514	594
514	595
514	596
514	597
514	598
514	599
514	608
515	524
515	525
515	526
515	527
515	528
515	529
515	534
515	535
515	536
515	538
515	540
515	541
515	542
515	543
515	548
515	550
515	551
515	552
515	553
515	554
515	555
515	556
515	558
515	576
515	578
515	600
515	611
516	517
516	518
516	519
516	523
516	546
516	563
516	601
516	603
516	613
516	614
516	615
516	616
516	617
516	618
516	619
516	620
516	621
516	622
516	623
516	625
516	632
516	633
516	634
516	640
516	643
516	644
516	645
516	646
516	647
516	648
516	651
516	652
516	653
516	654
516	655
516	656
516	657
516	658
516	659
516	660
516	661
516	662
516	663
516	664
516	672
516	674
516	682
516	683
516	685
516	686
516	693
516	696
516	697
516	698
516	699
516	704
516	705
516	706
516	707
516	708
516	709
516	711
516	712
516	713
516	714
516	715
516	716
516	717
516	718
516	719
516	722
516	723
516	724
516	725
516	726
516	727
516	728
516	729
516	732
516	733
516	734
516	735
516	736
516	738
516	741
516	743
516	744
516	747
516	749
516	751
516	752
516	754
516	755
516	756
516	757
516	758
516	759
516	760
516	761
516	762
516	767
516	769
516	772
516	773
516	774
516	775
516	776
516	778
516	779
516	780
516	782
516	788
516	791
516	798
516	799
516	800
516	804
516	806
516	810
516	812
516	813
516	814
516	815
516	816
516	821
516	825
516	826
516	827
516	829
516	841
516	842
516	843
516	844
516	845
516	850
516	855
516	856
516	857
516	858
516	859
516	860
516	863
516	866
516	867
516	869
516	870
516	872
516	874
516	875
516	877
516	879
516	883
516	885
516	891
516	902
516	905
516	911
516	923
516	937
516	943
516	945
516	954
516	968
516	991
516	993
517	518
517	519
517	523
517	601
517	613
517	614
517	621
517	622
517	623
517	625
517	654
517	656
517	660
517	661
517	664
517	672
517	698
517	699
517	704
517	707
517	708
517	715
517	721
517	724
517	725
517	726
517	727
517	728
517	729
517	734
517	735
517	736
517	748
517	756
517	758
517	759
517	760
517	761
517	762
517	773
517	774
517	775
517	776
517	777
517	778
517	779
517	782
517	791
517	798
517	804
517	812
517	813
517	814
517	815
517	827
517	841
517	845
517	847
517	848
517	857
517	865
517	869
517	870
517	875
517	877
517	882
517	911
517	914
517	917
517	923
518	519
518	523
518	563
518	581
518	602
518	603
518	613
518	616
518	620
518	621
518	622
518	623
518	624
518	625
518	627
518	632
518	633
518	634
518	648
518	652
518	653
518	654
518	655
518	656
518	657
518	659
518	660
518	661
518	662
518	664
518	678
518	686
518	696
518	698
518	699
518	707
518	708
518	714
518	721
518	725
518	726
518	727
518	728
518	729
518	732
518	734
518	735
518	736
518	737
518	738
518	744
518	748
518	752
518	753
518	755
518	756
518	757
518	758
518	759
518	760
518	761
518	762
518	773
518	774
518	775
518	776
518	777
518	778
518	779
518	780
518	781
518	782
518	783
518	788
518	791
518	798
518	799
518	804
518	806
518	812
518	813
518	814
518	815
518	816
518	817
518	825
518	826
518	827
518	828
518	829
518	842
518	844
518	845
518	846
518	847
518	848
518	849
518	850
518	852
518	853
518	856
518	857
518	859
518	863
518	867
518	869
518	870
518	872
518	874
518	875
518	876
518	877
518	882
518	883
518	885
518	899
518	900
518	902
518	905
518	906
518	911
518	912
518	923
518	924
518	934
518	937
518	938
518	944
518	949
518	951
518	953
518	954
518	959
518	970
518	986
518	996
519	523
519	563
519	603
519	605
519	606
519	607
519	613
519	616
519	617
519	619
519	621
519	622
519	623
519	624
519	625
519	627
519	632
519	633
519	640
519	642
519	645
519	648
519	653
519	654
519	655
519	659
519	660
519	661
519	662
519	663
519	664
519	669
519	674
519	685
519	695
519	698
519	699
519	707
519	708
519	720
519	722
519	726
519	729
519	731
519	732
519	734
519	735
519	736
519	737
519	738
519	739
519	747
519	748
519	749
519	755
519	756
519	758
519	759
519	760
519	761
519	762
519	763
519	764
519	768
519	774
519	776
519	777
519	778
519	779
519	781
519	782
519	783
519	784
519	789
519	790
519	791
519	799
519	800
519	804
519	806
519	808
519	810
519	811
519	812
519	813
519	814
519	815
519	816
519	817
519	826
519	828
519	829
519	833
519	837
519	842
519	843
519	844
519	845
519	846
519	847
519	848
519	849
519	850
519	851
519	852
519	853
519	856
519	857
519	860
519	861
519	862
519	863
519	865
519	867
519	869
519	875
519	876
519	877
519	881
519	882
519	883
519	885
519	892
519	897
519	898
519	899
519	900
519	902
519	904
519	905
519	906
519	907
519	908
519	909
519	910
519	911
519	912
519	913
519	914
519	917
519	919
519	921
519	922
519	923
519	930
519	931
519	932
519	936
519	937
519	939
519	940
519	943
519	944
519	950
519	952
519	953
519	954
519	970
519	971
519	972
519	974
519	977
519	978
519	984
519	1002
520	531
520	532
520	544
520	559
520	564
520	565
520	566
520	567
520	568
520	569
520	570
520	571
520	572
520	575
520	580
520	582
521	531
521	532
521	533
521	539
521	540
521	544
521	545
521	546
521	547
521	559
521	561
521	564
521	569
521	571
521	572
521	573
521	574
521	575
521	580
521	582
521	583
522	536
522	537
522	548
522	552
522	576
522	587
523	563
523	601
523	602
523	613
523	615
523	617
523	618
523	619
523	620
523	621
523	622
523	623
523	624
523	625
523	632
523	633
523	642
523	644
523	645
523	647
523	648
523	649
523	651
523	652
523	653
523	654
523	655
523	656
523	657
523	658
523	659
523	660
523	661
523	662
523	664
523	672
523	674
523	684
523	685
523	686
523	687
523	696
523	697
523	698
523	699
523	701
523	704
523	705
523	706
523	707
523	708
523	709
523	714
523	715
523	717
523	718
523	719
523	722
523	724
523	725
523	726
523	727
523	728
523	729
523	731
523	732
523	734
523	735
523	736
523	738
523	744
523	748
523	749
523	751
523	752
523	753
523	754
523	755
523	756
523	757
523	758
523	759
523	760
523	761
523	762
523	767
523	773
523	774
523	775
523	776
523	777
523	778
523	779
523	780
523	782
523	788
523	798
523	799
523	804
523	806
523	810
523	812
523	813
523	814
523	815
523	816
523	821
523	822
523	825
523	826
523	827
523	828
523	829
523	841
523	842
523	843
523	844
523	845
523	846
523	847
523	848
523	854
523	855
523	856
523	857
523	858
523	859
523	862
523	863
523	865
523	867
523	869
523	870
523	872
523	874
523	875
523	876
523	877
523	878
523	882
523	883
523	891
523	902
523	903
523	911
523	937
523	945
523	950
523	954
523	992
524	525
524	526
524	527
524	528
524	529
524	534
524	535
524	536
524	537
524	538
524	539
524	540
524	541
524	542
524	543
524	545
524	548
524	549
524	550
524	551
524	552
524	553
524	554
524	555
524	556
524	558
524	576
524	586
524	588
524	591
524	593
524	597
524	600
524	611
524	612
525	526
525	527
525	528
525	529
525	535
525	551
525	554
525	555
525	558
525	600
525	609
525	610
525	611
525	612
526	527
526	528
526	529
526	534
526	535
526	536
526	537
526	538
526	539
526	540
526	541
526	542
526	543
526	544
526	545
526	547
526	548
526	549
526	550
526	552
526	553
526	554
526	555
526	556
526	557
526	558
526	560
526	562
526	576
526	577
526	578
526	579
526	585
526	586
526	587
526	588
526	589
526	590
526	591
526	592
526	593
526	594
526	595
526	596
526	597
526	598
526	599
526	600
526	608
526	609
526	611
526	612
527	528
527	529
527	534
527	535
527	536
527	537
527	538
527	541
527	542
527	548
527	549
527	550
527	551
527	553
527	554
527	558
527	600
527	611
527	612
528	529
528	535
528	536
528	549
528	551
528	552
528	558
528	600
528	611
529	535
529	537
529	540
529	541
529	542
529	551
529	554
529	555
529	558
529	579
529	600
529	611
530	563
530	601
530	613
530	614
530	615
530	619
530	620
530	622
530	624
530	646
530	650
530	651
530	652
530	653
530	654
530	655
530	656
530	657
530	659
530	687
530	696
530	697
530	704
530	705
530	706
530	707
530	709
530	712
530	713
530	714
530	715
530	716
530	720
530	723
530	724
530	725
530	726
530	727
530	729
530	730
530	733
530	740
530	741
530	742
530	745
530	747
530	750
530	751
530	753
530	754
530	757
530	759
530	764
530	765
530	766
530	769
530	772
530	773
530	774
530	780
530	786
530	787
530	788
530	792
530	793
530	794
530	795
530	796
530	797
530	800
530	801
530	802
530	814
530	830
530	831
530	835
530	841
530	873
530	878
530	879
530	880
530	884
530	886
530	887
530	888
530	889
530	890
530	894
530	895
531	532
531	533
531	559
531	561
531	564
531	566
531	567
531	568
531	569
531	570
531	571
531	572
531	573
531	574
531	575
531	580
531	582
531	583
532	533
532	544
532	546
532	559
532	561
532	564
532	565
532	566
532	567
532	569
532	570
532	571
532	572
532	573
532	574
532	575
532	580
532	582
532	583
533	544
533	545
533	546
533	547
533	559
533	561
533	562
533	564
533	567
533	569
533	570
533	571
533	572
533	573
533	574
533	575
533	578
533	580
533	582
533	583
533	584
534	535
534	536
534	537
534	538
534	539
534	540
534	541
534	542
534	543
534	544
534	545
534	548
534	549
534	550
534	552
534	553
534	554
534	555
534	556
534	557
534	558
534	560
534	562
534	576
534	577
534	578
534	579
534	585
534	586
534	587
534	588
534	589
534	590
534	591
534	592
534	593
534	594
534	595
534	597
534	598
534	599
535	536
535	539
535	541
535	545
535	551
535	552
535	553
535	554
535	555
535	556
535	558
535	593
535	600
535	609
535	611
535	612
536	537
536	538
536	539
536	540
536	541
536	542
536	543
536	545
536	548
536	549
536	550
536	552
536	553
536	554
536	555
536	556
536	557
536	558
536	562
536	576
536	578
536	579
536	585
536	586
536	587
536	589
536	591
536	592
536	593
536	594
536	595
536	596
536	597
536	598
536	608
537	538
537	539
537	540
537	541
537	542
537	545
537	548
537	549
537	550
537	552
537	553
537	554
537	555
537	556
537	558
537	562
537	576
537	586
537	587
537	590
537	591
537	593
537	595
537	598
538	539
538	540
538	541
538	542
538	543
538	545
538	548
538	549
538	550
538	552
538	553
538	554
538	555
538	556
538	558
538	560
538	562
538	576
538	578
538	579
538	585
538	586
538	587
538	588
538	590
538	591
538	592
538	593
538	595
538	596
538	597
538	608
539	540
539	541
539	542
539	544
539	545
539	547
539	548
539	550
539	552
539	553
539	554
539	555
539	556
539	557
539	558
539	560
539	562
539	577
539	578
539	579
539	585
539	586
539	588
539	589
539	590
539	591
539	592
539	593
539	594
539	595
539	596
539	598
539	599
540	541
540	542
540	543
540	544
540	545
540	548
540	549
540	550
540	552
540	553
540	554
540	555
540	556
540	557
540	559
540	560
540	562
540	577
540	578
540	579
540	585
540	586
540	587
540	588
540	589
540	590
540	591
540	592
540	593
540	594
540	595
540	596
540	598
540	599
541	542
541	543
541	544
541	545
541	548
541	549
541	550
541	552
541	553
541	554
541	555
541	556
541	557
541	558
541	560
541	562
541	575
541	576
541	577
541	578
541	579
541	585
541	586
541	587
541	588
541	589
541	590
541	591
541	592
541	593
541	594
541	595
541	596
541	597
541	598
541	599
541	600
541	610
541	611
541	612
542	543
542	545
542	548
542	549
542	550
542	552
542	553
542	554
542	555
542	556
542	557
542	558
542	560
542	562
542	576
542	577
542	578
542	579
542	585
542	586
542	587
542	588
542	589
542	590
542	591
542	592
542	593
542	594
542	595
542	596
542	597
542	598
542	599
543	548
543	549
543	550
543	552
543	553
543	554
543	555
543	556
543	558
543	562
543	576
543	578
543	586
543	587
543	590
543	591
543	593
543	599
543	608
544	545
544	546
544	547
544	552
544	553
544	554
544	555
544	557
544	559
544	560
544	561
544	562
544	564
544	570
544	573
544	575
544	577
544	578
544	579
544	584
544	588
544	592
544	594
544	596
545	548
545	550
545	552
545	553
545	554
545	555
545	556
545	557
545	560
545	562
545	576
545	577
545	578
545	579
545	585
545	586
545	587
545	588
545	589
545	590
545	591
545	592
545	594
545	595
545	596
545	598
545	599
546	559
546	562
546	566
546	572
546	575
546	580
547	559
547	560
547	562
547	578
547	579
547	592
547	594
547	596
548	549
548	550
548	552
548	553
548	554
548	555
548	556
548	557
548	558
548	562
548	576
548	578
548	579
548	585
548	586
548	587
548	589
548	590
548	591
548	592
548	593
548	595
548	597
548	598
548	608
549	550
549	552
549	553
549	554
549	555
549	556
549	558
549	562
549	576
549	578
549	586
549	587
549	591
549	592
549	593
549	595
549	597
549	608
550	552
550	553
550	554
550	555
550	556
550	558
550	562
550	576
550	578
550	579
550	585
550	586
550	587
550	588
550	590
550	591
550	593
550	594
550	595
550	596
550	597
550	598
551	554
551	600
551	611
552	553
552	554
552	555
552	556
552	557
552	558
552	562
552	576
552	578
552	579
552	585
552	586
552	587
552	590
552	591
552	592
552	593
552	595
552	597
552	598
552	599
552	600
552	610
552	611
552	612
553	554
553	555
553	556
553	557
553	558
553	560
553	562
553	576
553	578
553	579
553	585
553	586
553	587
553	588
553	589
553	590
553	591
553	592
553	593
553	594
553	595
553	596
553	597
553	598
553	599
553	610
554	555
554	556
554	557
554	558
554	560
554	562
554	576
554	578
554	579
554	585
554	586
554	587
554	588
554	589
554	590
554	591
554	592
554	593
554	595
554	597
554	598
554	599
554	600
554	608
554	610
554	611
554	612
555	556
555	558
555	562
555	576
555	578
555	579
555	585
555	586
555	587
555	590
555	591
555	592
555	593
555	595
555	597
555	600
555	608
555	611
555	612
556	557
556	558
556	560
556	562
556	576
556	578
556	579
556	585
556	586
556	587
556	588
556	589
556	590
556	591
556	592
556	593
556	594
556	595
556	596
556	597
556	608
556	609
557	560
557	562
557	577
557	578
557	579
557	585
557	588
557	589
557	590
557	592
557	594
557	595
557	596
557	598
557	599
558	562
558	576
558	585
558	586
558	587
558	591
558	593
558	600
558	609
558	610
558	611
558	612
559	561
559	564
559	566
559	569
559	570
559	571
559	572
559	573
559	574
559	575
559	580
559	582
559	583
559	584
560	562
560	577
560	578
560	579
560	585
560	588
560	589
560	592
560	594
560	595
560	596
560	598
560	599
561	564
561	565
561	567
561	569
561	570
561	571
561	572
561	573
561	574
561	575
561	580
561	582
561	583
561	584
562	577
562	578
562	579
562	585
562	586
562	587
562	588
562	589
562	590
562	591
562	592
562	593
562	594
562	595
562	596
562	598
562	599
563	601
563	613
563	614
563	615
563	616
563	617
563	618
563	619
563	620
563	621
563	622
563	623
563	624
563	625
563	626
563	627
563	630
563	632
563	633
563	634
563	640
563	642
563	646
563	647
563	648
563	649
563	651
563	652
563	653
563	654
563	655
563	656
563	657
563	658
563	659
563	660
563	661
563	662
563	663
563	664
563	666
563	672
563	673
563	674
563	675
563	684
563	685
563	686
563	687
563	693
563	694
563	696
563	697
563	698
563	699
563	704
563	705
563	706
563	707
563	708
563	709
563	713
563	714
563	715
563	716
563	717
563	719
563	720
563	721
563	722
563	723
563	724
563	725
563	726
563	727
563	728
563	729
563	731
563	732
563	733
563	734
563	735
563	736
563	737
563	738
563	741
563	742
563	743
563	744
563	745
563	746
563	747
563	748
563	749
563	750
563	751
563	752
563	753
563	754
563	757
563	758
563	759
563	760
563	761
563	762
563	763
563	766
563	767
563	768
563	769
563	770
563	771
563	772
563	773
563	774
563	775
563	776
563	779
563	780
563	785
563	786
563	787
563	788
563	793
563	794
563	795
563	796
563	797
563	798
563	800
563	801
563	802
563	806
563	810
563	811
563	812
563	813
563	814
563	819
563	820
563	821
563	822
563	823
563	824
563	826
563	827
563	831
563	834
563	835
563	836
563	837
563	839
563	840
563	841
563	843
563	855
563	856
563	857
563	859
563	860
563	861
563	862
563	863
563	870
563	872
563	873
563	878
563	879
563	880
563	884
563	886
563	887
563	888
563	889
563	891
563	916
563	917
563	925
564	565
564	566
564	567
564	568
564	569
564	570
564	571
564	572
564	573
564	575
564	584
565	566
565	567
565	569
565	570
565	575
565	581
566	567
566	568
566	569
566	570
566	571
566	572
566	573
566	575
566	581
567	568
567	569
567	570
567	571
567	572
567	582
567	603
568	569
568	570
569	570
569	571
569	572
569	573
569	574
569	575
569	580
569	582
569	583
570	571
570	572
570	573
570	574
570	575
570	582
570	583
571	572
571	573
571	574
571	575
571	582
571	583
572	573
572	574
572	575
572	580
572	582
572	583
573	574
573	575
573	580
573	582
573	583
574	575
574	580
574	582
574	583
575	580
575	582
575	584
575	585
575	607
576	578
576	586
576	587
576	591
576	593
576	595
576	597
577	578
577	579
577	585
577	588
577	589
577	592
577	594
577	595
577	596
578	579
578	585
578	586
578	587
578	588
578	589
578	590
578	591
578	592
578	593
578	594
578	595
578	596
578	597
578	598
578	599
579	585
579	586
579	588
579	589
579	592
579	594
579	595
579	596
579	598
580	582
580	583
580	584
580	604
580	605
580	606
581	602
581	603
581	604
581	605
581	606
581	607
581	661
581	698
581	734
581	735
581	755
581	756
581	761
581	776
581	778
581	781
581	782
581	783
581	789
581	804
581	815
581	842
581	846
581	847
581	848
581	849
581	850
581	869
581	874
581	875
581	876
581	881
581	892
581	897
581	898
581	900
581	904
581	906
581	911
581	912
581	918
581	919
581	920
581	924
581	930
581	931
581	932
581	937
581	952
581	955
581	956
581	977
581	992
581	993
581	994
581	995
581	999
582	583
582	584
585	588
585	589
585	590
585	591
585	592
585	594
585	595
585	596
585	599
586	587
586	588
586	589
586	590
586	591
586	595
586	600
587	591
587	592
587	593
587	597
587	608
588	589
588	590
588	592
588	594
588	595
588	596
588	598
588	599
589	590
589	592
589	594
589	595
589	596
589	598
589	599
590	592
590	595
590	598
590	599
591	592
591	593
591	597
592	594
592	595
592	596
592	598
592	599
593	597
593	608
594	595
594	596
594	598
594	599
595	596
595	598
595	599
596	598
598	599
600	609
600	610
600	611
600	612
601	613
601	614
601	615
601	616
601	617
601	618
601	619
601	620
601	621
601	622
601	623
601	624
601	633
601	634
601	640
601	642
601	645
601	648
601	651
601	652
601	653
601	656
601	657
601	659
601	687
601	696
601	697
601	699
601	704
601	705
601	706
601	707
601	708
601	709
601	714
601	715
601	716
601	719
601	720
601	723
601	724
601	725
601	726
601	727
601	728
601	729
601	731
601	733
601	737
601	741
601	742
601	743
601	747
601	751
601	753
601	754
601	757
601	765
601	766
601	769
601	772
601	773
601	774
601	780
601	786
601	787
601	788
601	793
601	794
601	795
601	796
601	797
601	800
601	801
601	802
601	810
601	811
601	812
601	821
601	822
601	823
601	824
601	831
601	834
601	840
601	841
601	859
601	860
601	870
601	873
601	878
601	879
601	880
601	886
601	887
601	888
601	889
601	890
601	895
602	603
602	604
602	605
602	606
602	607
602	625
602	661
602	664
602	698
602	699
602	708
602	734
602	735
602	736
602	756
602	761
602	776
602	777
602	778
602	781
602	782
602	783
602	784
602	789
602	790
602	791
602	799
602	804
602	813
602	814
602	815
602	827
602	828
602	842
602	843
602	846
602	847
602	848
602	849
602	850
602	869
602	874
602	875
602	876
602	881
602	882
602	885
602	892
602	897
602	898
602	899
602	900
602	904
602	905
602	906
602	907
602	908
602	911
602	912
602	918
602	919
602	920
602	923
602	924
602	930
602	931
602	932
602	937
602	950
602	952
602	955
602	956
602	963
602	977
602	992
602	993
602	994
602	995
602	996
602	998
602	999
602	1000
603	604
603	605
603	606
603	607
603	613
603	617
603	619
603	621
603	622
603	623
603	625
603	652
603	654
603	655
603	656
603	659
603	660
603	661
603	664
603	698
603	699
603	704
603	705
603	707
603	708
603	719
603	726
603	729
603	732
603	734
603	735
603	736
603	738
603	755
603	756
603	759
603	760
603	761
603	762
603	775
603	776
603	777
603	778
603	779
603	781
603	782
603	783
603	784
603	789
603	790
603	791
603	799
603	804
603	813
603	814
603	815
603	816
603	817
603	824
603	827
603	828
603	842
603	844
603	846
603	847
603	848
603	849
603	850
603	853
603	855
603	856
603	869
603	874
603	875
603	876
603	877
603	881
603	882
603	885
603	892
603	897
603	898
603	899
603	900
603	902
603	904
603	905
603	906
603	907
603	908
603	910
603	911
603	912
603	918
603	919
603	920
603	923
603	924
603	930
603	931
603	932
603	937
603	938
603	939
603	944
603	950
603	952
603	955
603	956
603	977
603	992
603	993
603	994
603	995
603	998
603	999
603	1000
604	605
604	606
604	607
604	625
604	655
604	661
604	699
604	735
604	756
604	776
604	781
604	782
604	783
604	789
604	790
604	815
604	842
604	846
604	847
604	848
604	849
604	875
604	876
604	881
604	897
604	898
604	900
604	904
604	911
604	912
604	918
604	919
604	920
604	923
604	924
604	930
604	931
604	932
604	950
604	955
604	956
604	977
604	992
604	993
604	994
604	995
604	999
604	1000
605	606
605	607
605	625
605	660
605	661
605	664
605	734
605	735
605	736
605	756
605	761
605	776
605	778
605	779
605	781
605	782
605	783
605	784
605	789
605	790
605	799
605	804
605	813
605	815
605	828
605	842
605	846
605	847
605	848
605	849
605	850
605	856
605	876
605	881
605	882
605	885
605	892
605	897
605	898
605	899
605	900
605	904
605	905
605	906
605	907
605	908
605	911
605	912
605	919
605	920
605	922
605	923
605	924
605	930
605	931
605	932
605	936
605	937
605	941
605	950
605	952
605	954
605	955
605	956
605	977
605	987
605	994
605	995
605	996
605	998
605	999
605	1000
606	607
606	621
606	625
606	660
606	661
606	664
606	698
606	699
606	734
606	735
606	736
606	738
606	756
606	760
606	761
606	776
606	777
606	779
606	781
606	782
606	783
606	784
606	789
606	790
606	791
606	799
606	804
606	813
606	814
606	815
606	816
606	828
606	842
606	846
606	847
606	848
606	849
606	850
606	853
606	856
606	869
606	874
606	875
606	876
606	881
606	882
606	885
606	892
606	897
606	898
606	899
606	900
606	904
606	905
606	906
606	907
606	908
606	909
606	910
606	911
606	912
606	918
606	919
606	920
606	923
606	924
606	930
606	931
606	932
606	936
606	937
606	939
606	950
606	952
606	954
606	955
606	956
606	972
606	977
606	992
606	994
606	995
606	996
606	998
606	999
606	1000
607	621
607	625
607	660
607	661
607	664
607	699
607	707
607	734
607	735
607	736
607	738
607	755
607	756
607	761
607	773
607	776
607	777
607	778
607	779
607	781
607	782
607	783
607	784
607	789
607	790
607	799
607	804
607	813
607	814
607	815
607	816
607	826
607	828
607	829
607	842
607	846
607	847
607	848
607	849
607	850
607	851
607	853
607	856
607	874
607	875
607	876
607	881
607	882
607	885
607	892
607	897
607	898
607	899
607	900
607	904
607	905
607	906
607	907
607	908
607	909
607	910
607	911
607	912
607	915
607	919
607	920
607	921
607	922
607	923
607	924
607	930
607	931
607	932
607	936
607	937
607	950
607	952
607	954
607	955
607	956
607	977
607	992
607	993
607	994
607	995
607	996
607	998
607	999
607	1000
609	612
610	612
611	612
613	614
613	615
613	616
613	617
613	618
613	619
613	620
613	621
613	622
613	623
613	624
613	625
613	630
613	632
613	633
613	634
613	638
613	639
613	640
613	641
613	642
613	643
613	644
613	645
613	646
613	647
613	648
613	649
613	651
613	652
613	653
613	654
613	655
613	656
613	657
613	658
613	659
613	660
613	661
613	662
613	663
613	664
613	666
613	669
613	671
613	672
613	673
613	674
613	675
613	681
613	682
613	683
613	684
613	685
613	686
613	687
613	693
613	694
613	695
613	696
613	697
613	698
613	699
613	704
613	705
613	706
613	707
613	708
613	709
613	710
613	711
613	712
613	714
613	715
613	717
613	718
613	719
613	720
613	721
613	722
613	723
613	724
613	725
613	726
613	727
613	728
613	729
613	731
613	732
613	733
613	734
613	735
613	736
613	737
613	738
613	739
613	740
613	741
613	742
613	743
613	744
613	745
613	746
613	747
613	748
613	749
613	750
613	751
613	752
613	753
613	754
613	755
613	756
613	757
613	758
613	759
613	760
613	761
613	762
613	763
613	764
613	766
613	767
613	768
613	769
613	770
613	771
613	772
613	773
613	774
613	775
613	776
613	777
613	779
613	780
613	782
613	783
613	784
613	785
613	786
613	787
613	788
613	789
613	791
613	794
613	795
613	796
613	797
613	798
613	799
613	800
613	801
613	802
613	803
613	804
613	805
613	806
613	807
613	808
613	810
613	811
613	812
613	813
613	814
613	815
613	818
613	819
613	820
613	821
613	826
613	827
613	828
613	829
613	831
613	832
613	833
613	834
613	835
613	836
613	837
613	839
613	840
613	841
613	842
613	843
613	846
613	847
613	848
613	849
613	850
613	855
613	856
613	857
613	859
613	860
613	861
613	862
613	866
613	868
613	869
613	870
613	872
613	873
613	875
613	876
613	877
613	882
613	883
613	884
613	885
613	886
613	887
613	888
613	892
613	893
613	895
613	896
613	898
613	899
613	900
613	901
613	902
613	905
613	907
613	916
613	917
613	922
613	926
613	927
613	930
613	931
613	933
613	934
613	935
613	936
614	615
614	616
614	618
614	619
614	620
614	621
614	622
614	624
614	630
614	632
614	633
614	634
614	635
614	636
614	640
614	642
614	644
614	646
614	647
614	648
614	649
614	650
614	651
614	652
614	653
614	654
614	655
614	656
614	657
614	659
614	660
614	662
614	664
614	666
614	672
614	674
614	678
614	684
614	685
614	686
614	687
614	692
614	694
614	695
614	696
614	697
614	698
614	699
614	700
614	701
614	702
614	703
614	704
614	705
614	706
614	707
614	708
614	709
614	712
614	713
614	714
614	715
614	716
614	717
614	719
614	720
614	722
614	723
614	724
614	725
614	726
614	727
614	728
614	729
614	730
614	732
614	733
614	734
614	737
614	740
614	741
614	742
614	744
614	745
614	746
614	747
614	748
614	749
614	750
614	751
614	752
614	753
614	754
614	757
614	759
614	763
614	764
614	765
614	766
614	767
614	769
614	771
614	772
614	773
614	774
614	775
614	780
614	786
614	787
614	788
614	792
614	793
614	794
614	795
614	796
614	797
614	798
614	800
614	801
614	802
614	806
614	807
614	808
614	810
614	811
614	812
614	814
614	819
614	821
614	822
614	823
614	831
614	835
614	836
614	837
614	839
614	840
614	841
614	860
614	861
614	870
614	872
614	873
614	878
614	879
614	880
614	884
614	886
614	887
614	888
614	889
614	890
614	891
614	894
614	895
615	616
615	617
615	618
615	619
615	620
615	621
615	622
615	623
615	624
615	625
615	626
615	627
615	630
615	632
615	633
615	646
615	648
615	652
615	653
615	654
615	655
615	656
615	657
615	658
615	659
615	660
615	661
615	662
615	663
615	672
615	683
615	686
615	687
615	694
615	696
615	697
615	698
615	699
615	704
615	705
615	706
615	707
615	708
615	709
615	713
615	717
615	719
615	720
615	723
615	724
615	725
615	726
615	727
615	728
615	729
615	730
615	732
615	733
615	734
615	737
615	738
615	741
615	744
615	745
615	746
615	747
615	748
615	749
615	750
615	751
615	752
615	753
615	754
615	757
615	758
615	759
615	763
615	769
615	770
615	771
615	772
615	773
615	774
615	775
615	779
615	780
615	788
615	794
615	796
615	797
615	798
615	800
615	802
615	805
615	806
615	808
615	810
615	811
615	812
615	814
615	819
615	820
615	821
615	822
615	823
615	824
615	834
615	835
615	836
615	837
615	839
615	840
615	841
615	845
615	859
615	860
615	861
615	872
615	873
615	878
615	884
615	886
615	887
615	891
615	901
615	916
615	917
615	925
615	926
615	928
615	942
616	617
616	618
616	619
616	620
616	621
616	622
616	623
616	624
616	625
616	632
616	638
616	639
616	640
616	645
616	648
616	649
616	652
616	653
616	654
616	656
616	657
616	658
616	659
616	660
616	661
616	662
616	663
616	664
616	671
616	672
616	681
616	682
616	685
616	690
616	693
616	697
616	699
616	704
616	705
616	706
616	707
616	708
616	709
616	720
616	723
616	724
616	725
616	726
616	727
616	731
616	732
616	733
616	734
616	736
616	737
616	738
616	739
616	745
616	746
616	747
616	750
616	751
616	752
616	753
616	754
616	755
616	757
616	761
616	763
616	764
616	767
616	768
616	769
616	771
616	772
616	773
616	779
616	788
616	791
616	796
616	797
616	799
616	802
616	806
616	807
616	808
616	810
616	811
616	812
616	813
616	814
616	817
616	818
616	819
616	820
616	821
616	822
616	823
616	824
616	826
616	833
616	834
616	835
616	836
616	837
616	838
616	839
616	840
616	841
616	843
616	844
616	855
616	860
616	861
616	872
616	873
616	878
616	879
616	884
616	889
616	891
616	896
616	943
616	947
617	618
617	619
617	620
617	621
617	622
617	623
617	625
617	627
617	641
617	654
617	657
617	660
617	661
617	662
617	664
617	697
617	698
617	699
617	705
617	707
617	708
617	709
617	722
617	724
617	725
617	726
617	727
617	729
617	731
617	732
617	734
617	735
617	736
617	737
617	738
617	751
617	754
617	755
617	756
617	759
617	760
617	761
617	762
617	767
617	768
617	772
617	773
617	774
617	775
617	776
617	779
617	782
617	788
617	790
617	791
617	799
617	804
617	806
617	811
617	812
617	813
617	814
617	815
617	817
617	821
617	823
617	824
617	825
617	826
617	828
617	829
617	833
617	834
617	837
617	843
617	844
617	846
617	847
617	848
617	849
617	850
617	851
617	852
617	853
617	854
617	855
617	856
617	857
617	858
617	859
617	860
617	861
617	862
617	863
617	865
617	866
617	867
617	870
617	872
617	877
617	879
617	882
617	883
617	891
617	899
617	900
617	903
617	905
617	907
617	910
617	912
617	913
617	914
617	915
617	917
617	922
617	929
617	932
617	933
617	934
617	935
617	936
617	938
617	939
617	940
617	941
617	942
617	943
617	944
617	945
617	946
617	947
617	949
617	951
617	952
617	954
617	960
617	962
617	964
617	965
617	966
617	967
617	968
617	970
617	971
617	972
617	973
617	974
617	975
617	976
617	977
617	978
617	979
617	980
617	981
617	982
617	983
617	984
617	985
618	619
618	620
618	621
618	622
618	623
618	624
618	640
618	653
618	656
618	657
618	660
618	662
618	664
618	693
618	697
618	699
618	704
618	705
618	706
618	707
618	708
618	709
618	724
618	725
618	726
618	727
618	729
618	731
618	732
618	733
618	736
618	737
618	738
618	739
618	745
618	747
618	750
618	751
618	752
618	753
618	754
618	755
618	756
618	757
618	761
618	763
618	768
618	769
618	771
618	772
618	773
618	779
618	788
618	797
618	799
618	806
618	808
618	810
618	811
618	812
618	813
618	814
618	818
618	819
618	820
618	821
618	822
618	823
618	824
618	825
618	826
618	829
618	832
618	833
618	834
618	835
618	836
618	837
618	839
618	840
618	841
618	843
618	844
618	853
618	860
618	861
618	862
618	863
618	865
618	878
618	879
618	884
618	891
618	900
618	903
618	949
618	971
618	972
618	979
619	620
619	621
619	622
619	623
619	624
619	625
619	627
619	633
619	639
619	640
619	641
619	648
619	652
619	654
619	655
619	656
619	657
619	658
619	659
619	660
619	662
619	663
619	681
619	689
619	697
619	699
619	704
619	705
619	706
619	707
619	708
619	709
619	714
619	720
619	722
619	723
619	724
619	725
619	726
619	727
619	728
619	729
619	731
619	732
619	733
619	736
619	737
619	738
619	739
619	745
619	746
619	747
619	750
619	751
619	752
619	753
619	754
619	756
619	757
619	761
619	762
619	763
619	764
619	766
619	768
619	769
619	770
619	771
619	772
619	773
619	775
619	779
619	780
619	788
619	791
619	794
619	795
619	796
619	797
619	799
619	800
619	802
619	803
619	806
619	808
619	810
619	811
619	812
619	817
619	818
619	819
619	820
619	821
619	822
619	823
619	824
619	826
619	832
619	833
619	834
619	835
619	836
619	837
619	838
619	839
619	840
619	841
619	843
619	855
619	856
619	857
619	859
619	860
619	861
619	862
619	863
619	864
619	865
619	873
619	877
619	878
619	884
619	886
619	891
619	916
619	926
619	927
619	929
619	935
619	949
619	959
619	979
620	621
620	622
620	623
620	624
620	630
620	632
620	633
620	634
620	641
620	644
620	645
620	646
620	648
620	649
620	652
620	653
620	654
620	655
620	656
620	657
620	658
620	659
620	660
620	662
620	663
620	664
620	666
620	672
620	673
620	694
620	695
620	696
620	697
620	698
620	699
620	704
620	705
620	706
620	707
620	708
620	709
620	714
620	715
620	717
620	719
620	720
620	722
620	723
620	724
620	725
620	726
620	727
620	728
620	729
620	732
620	733
620	734
620	735
620	736
620	738
620	741
620	742
620	744
620	745
620	746
620	747
620	748
620	749
620	750
620	751
620	752
620	753
620	754
620	757
620	758
620	759
620	762
620	763
620	767
620	768
620	769
620	770
620	771
620	772
620	773
620	774
620	775
620	779
620	780
620	782
620	787
620	788
620	793
620	797
620	800
620	806
620	810
620	811
620	812
620	813
620	814
620	821
620	822
620	823
620	824
620	825
620	826
620	827
620	829
620	834
620	835
620	836
620	837
620	839
620	840
620	841
620	845
620	850
620	856
620	857
620	859
620	860
620	862
620	865
620	869
620	870
620	872
620	878
620	879
620	880
620	882
620	883
620	884
620	886
620	889
620	891
620	919
620	925
620	926
620	927
620	983
621	622
621	623
621	624
621	625
621	627
621	630
621	632
621	633
621	634
621	639
621	640
621	642
621	643
621	644
621	645
621	646
621	647
621	648
621	649
621	650
621	651
621	652
621	653
621	654
621	655
621	656
621	657
621	658
621	659
621	660
621	661
621	662
621	663
621	664
621	666
621	669
621	672
621	674
621	683
621	684
621	685
621	686
621	687
621	693
621	694
621	695
621	696
621	697
621	698
621	699
621	701
621	702
621	703
621	704
621	705
621	706
621	707
621	708
621	709
621	711
621	713
621	715
621	716
621	717
621	718
621	719
621	720
621	721
621	722
621	723
621	724
621	725
621	726
621	727
621	728
621	729
621	731
621	732
621	733
621	734
621	735
621	736
621	737
621	738
621	739
621	742
621	743
621	744
621	745
621	746
621	747
621	748
621	749
621	751
621	752
621	753
621	754
621	755
621	756
621	757
621	758
621	759
621	760
621	761
621	762
621	763
621	766
621	767
621	768
621	769
621	770
621	771
621	772
621	773
621	774
621	775
621	776
621	777
621	778
621	779
621	780
621	782
621	783
621	784
621	785
621	788
621	789
621	790
621	791
621	793
621	794
621	796
621	797
621	798
621	799
621	800
621	803
621	804
621	806
621	808
621	810
621	811
621	812
621	813
621	814
621	815
621	816
621	817
621	818
621	819
621	820
621	821
621	822
621	823
621	824
621	825
621	826
621	827
621	828
621	829
621	833
621	834
621	835
621	836
621	837
621	839
621	840
621	841
621	842
621	843
621	844
621	845
621	846
621	847
621	848
621	849
621	850
621	851
621	852
621	853
621	855
621	856
621	857
621	858
621	859
621	860
621	861
621	862
621	863
621	865
621	866
621	867
621	868
621	869
621	870
621	872
621	874
621	875
621	876
621	877
621	878
621	879
621	882
621	883
621	884
621	885
621	889
621	891
621	892
621	893
621	897
621	898
621	899
621	900
621	902
621	903
621	905
621	907
621	908
621	910
621	912
621	914
621	917
621	918
621	919
621	921
621	922
621	924
621	925
621	932
621	935
621	936
621	937
621	938
621	939
621	940
621	941
621	943
621	944
621	949
621	951
621	952
621	954
621	955
621	956
621	966
621	968
621	970
621	971
621	972
621	982
621	983
621	986
622	623
622	624
622	625
622	627
622	630
622	632
622	633
622	634
622	640
622	642
622	644
622	645
622	646
622	647
622	648
622	649
622	650
622	651
622	652
622	653
622	654
622	655
622	656
622	657
622	658
622	659
622	660
622	661
622	662
622	663
622	664
622	672
622	684
622	685
622	686
622	687
622	691
622	694
622	696
622	697
622	698
622	699
622	704
622	705
622	706
622	707
622	708
622	709
622	711
622	712
622	713
622	715
622	716
622	717
622	718
622	719
622	720
622	722
622	723
622	724
622	725
622	726
622	727
622	728
622	729
622	732
622	733
622	734
622	735
622	736
622	737
622	738
622	740
622	741
622	742
622	744
622	745
622	746
622	747
622	748
622	749
622	750
622	751
622	752
622	753
622	754
622	755
622	756
622	757
622	758
622	759
622	761
622	762
622	763
622	766
622	767
622	768
622	769
622	771
622	772
622	773
622	774
622	775
622	776
622	779
622	780
622	782
622	783
622	786
622	788
622	791
622	793
622	794
622	795
622	796
622	797
622	798
622	799
622	800
622	801
622	802
622	804
622	805
622	806
622	808
622	810
622	811
622	812
622	813
622	814
622	816
622	817
622	821
622	822
622	823
622	824
622	825
622	826
622	827
622	829
622	835
622	836
622	837
622	839
622	840
622	841
622	842
622	843
622	845
622	846
622	848
622	855
622	856
622	857
622	858
622	859
622	860
622	862
622	863
622	865
622	866
622	867
622	868
622	869
622	870
622	872
622	873
622	874
622	875
622	876
622	879
622	882
622	883
622	884
622	887
622	889
622	891
622	893
622	894
622	899
622	902
622	911
622	938
622	943
622	949
622	959
622	966
622	970
622	982
623	624
623	625
623	626
623	627
623	632
623	634
623	639
623	640
623	641
623	645
623	647
623	648
623	651
623	652
623	653
623	654
623	655
623	656
623	657
623	659
623	660
623	661
623	662
623	664
623	669
623	672
623	674
623	685
623	686
623	688
623	689
623	694
623	696
623	697
623	698
623	699
623	702
623	705
623	706
623	707
623	708
623	709
623	718
623	719
623	720
623	722
623	723
623	724
623	725
623	726
623	727
623	728
623	729
623	731
623	732
623	734
623	735
623	736
623	737
623	738
623	739
623	745
623	748
623	751
623	753
623	754
623	755
623	756
623	757
623	758
623	759
623	760
623	761
623	762
623	763
623	764
623	768
623	771
623	772
623	773
623	774
623	775
623	776
623	777
623	778
623	779
623	780
623	782
623	783
623	784
623	788
623	791
623	797
623	798
623	799
623	804
623	806
623	808
623	810
623	811
623	812
623	813
623	814
623	815
623	816
623	817
623	818
623	820
623	821
623	822
623	823
623	824
623	825
623	826
623	828
623	829
623	833
623	834
623	836
623	839
623	840
623	841
623	842
623	843
623	844
623	845
623	846
623	847
623	848
623	849
623	850
623	851
623	853
623	854
623	855
623	856
623	857
623	858
623	859
623	860
623	861
623	862
623	863
623	865
623	866
623	867
623	869
623	872
623	877
623	879
623	882
623	883
623	884
623	885
623	889
623	891
623	892
623	898
623	899
623	900
623	902
623	903
623	905
623	907
623	909
623	910
623	911
623	912
623	913
623	914
623	915
623	917
623	919
623	921
623	922
623	929
623	932
623	933
623	934
623	935
623	936
623	937
623	938
623	939
623	940
623	941
623	942
623	943
623	944
623	945
623	946
623	947
623	949
623	950
623	951
623	953
623	954
623	956
623	957
623	959
623	961
623	962
623	963
623	964
623	965
623	966
623	967
623	968
623	969
623	970
623	971
623	972
623	973
623	974
623	975
623	976
623	978
623	979
623	980
623	981
623	982
623	983
623	984
623	985
623	986
623	987
623	988
623	989
623	990
623	991
623	1001
623	1002
623	1004
623	1006
623	1007
623	1009
624	625
624	626
624	632
624	638
624	640
624	647
624	648
624	654
624	656
624	657
624	658
624	659
624	660
624	662
624	663
624	672
624	674
624	675
624	676
624	681
624	686
624	696
624	697
624	699
624	704
624	705
624	706
624	707
624	708
624	711
624	714
624	720
624	721
624	722
624	723
624	724
624	725
624	726
624	727
624	731
624	732
624	733
624	736
624	737
624	739
624	745
624	746
624	747
624	748
624	749
624	750
624	751
624	752
624	753
624	754
624	757
624	760
624	761
624	762
624	763
624	767
624	769
624	770
624	771
624	772
624	773
624	776
624	788
624	791
624	794
624	795
624	797
624	799
624	800
624	802
624	803
624	805
624	806
624	807
624	808
624	810
624	811
624	812
624	813
624	814
624	815
624	817
624	818
624	819
624	820
624	821
624	822
624	823
624	824
624	826
624	829
624	832
624	833
624	834
624	835
624	836
624	837
624	839
624	840
624	855
624	856
624	860
624	861
624	862
624	863
624	873
624	877
624	884
624	886
624	916
624	917
624	925
624	926
624	927
624	943
625	626
625	627
625	640
625	657
625	660
625	661
625	662
625	664
625	688
625	689
625	690
625	699
625	705
625	707
625	708
625	723
625	726
625	729
625	731
625	732
625	734
625	735
625	736
625	737
625	738
625	752
625	755
625	756
625	758
625	760
625	761
625	762
625	763
625	768
625	773
625	774
625	775
625	776
625	777
625	778
625	779
625	782
625	783
625	784
625	789
625	790
625	791
625	797
625	799
625	804
625	806
625	811
625	812
625	813
625	814
625	815
625	817
625	818
625	821
625	823
625	824
625	825
625	826
625	828
625	829
625	833
625	834
625	840
625	842
625	843
625	844
625	846
625	847
625	848
625	849
625	850
625	851
625	852
625	853
625	854
625	855
625	856
625	857
625	858
625	859
625	860
625	862
625	863
625	865
625	866
625	867
625	868
625	875
625	882
625	883
625	885
625	892
625	897
625	898
625	899
625	900
625	902
625	905
625	907
625	908
625	909
625	910
625	911
625	912
625	913
625	915
625	917
625	919
625	921
625	922
625	924
625	929
625	932
625	933
625	934
625	935
625	936
625	937
625	938
625	939
625	940
625	941
625	942
625	943
625	944
625	945
625	946
625	947
625	949
625	950
625	951
625	952
625	954
625	955
625	956
625	957
625	959
625	961
625	962
625	963
625	964
625	965
625	966
625	967
625	968
625	969
625	970
625	971
625	973
625	975
625	976
625	977
625	980
625	981
625	982
625	983
625	984
625	985
625	986
625	987
625	988
625	990
625	991
625	997
625	1001
625	1002
625	1004
625	1007
625	1008
626	627
626	628
626	629
626	630
626	631
626	632
626	633
626	634
626	636
626	638
626	648
626	660
626	662
626	663
626	664
626	665
626	666
626	668
626	669
626	670
626	671
626	672
626	673
626	674
626	683
626	685
626	686
626	687
626	688
626	689
626	690
626	700
626	718
626	726
626	732
626	735
626	736
626	738
626	755
626	761
626	763
626	799
626	817
626	828
626	829
626	852
626	868
626	882
626	899
626	900
626	917
626	933
626	934
626	935
626	940
626	954
626	959
626	962
626	964
626	965
626	966
626	968
626	1008
626	1009
627	628
627	629
627	630
627	631
627	633
627	636
627	654
627	655
627	656
627	657
627	659
627	660
627	662
627	664
627	665
627	666
627	668
627	672
627	688
627	689
627	690
627	696
627	722
627	724
627	726
627	732
627	734
627	735
627	736
627	737
627	738
627	739
627	747
627	754
627	755
627	756
627	761
627	762
627	763
627	768
627	776
627	779
627	782
627	791
627	799
627	804
627	806
627	808
627	810
627	811
627	812
627	813
627	814
627	815
627	817
627	819
627	825
627	826
627	828
627	829
627	836
627	843
627	848
627	849
627	851
627	852
627	853
627	854
627	855
627	856
627	857
627	859
627	863
627	866
627	867
627	868
627	885
627	892
627	899
627	900
627	905
627	907
627	908
627	910
627	914
627	915
627	916
627	917
627	921
627	933
627	934
627	935
627	936
627	938
627	940
627	941
627	942
627	943
627	944
627	945
627	946
627	947
627	949
627	951
627	953
627	954
627	957
627	959
627	961
627	962
627	963
627	964
627	965
627	966
627	967
627	968
627	970
627	971
627	973
627	974
627	975
627	976
627	978
627	979
627	980
627	981
627	982
627	984
627	985
627	986
627	989
627	990
627	991
627	1001
627	1002
627	1003
627	1007
627	1008
627	1009
628	629
628	630
628	631
628	632
628	633
628	634
628	635
628	636
628	637
628	638
628	639
628	648
628	650
628	663
628	665
628	666
628	667
628	668
628	669
628	670
628	671
628	672
628	673
628	674
628	676
628	678
628	679
628	680
628	681
628	685
628	686
628	687
628	690
628	691
628	692
628	693
628	694
629	630
629	631
629	632
629	633
629	634
629	635
629	636
629	637
629	638
629	645
629	646
629	647
629	648
629	649
629	650
629	651
629	655
629	663
629	665
629	666
629	668
629	669
629	671
629	672
629	673
629	674
629	675
629	676
629	677
629	678
629	679
629	680
629	681
629	682
629	683
629	684
629	685
629	686
629	687
629	690
629	691
629	692
629	693
629	694
629	695
629	696
629	697
629	698
629	699
630	631
630	632
630	633
630	634
630	635
630	636
630	637
630	638
630	639
630	640
630	641
630	642
630	644
630	645
630	646
630	647
630	648
630	649
630	650
630	651
630	652
630	653
630	654
630	655
630	656
630	657
630	661
630	663
630	664
630	665
630	666
630	667
630	668
630	669
630	670
630	671
630	672
630	673
630	674
630	675
630	676
630	677
630	678
630	679
630	680
630	681
630	682
630	684
630	685
630	686
630	687
630	691
630	692
630	693
630	694
630	695
630	696
630	697
630	698
630	699
630	700
630	701
630	702
630	704
630	705
630	706
630	707
630	708
630	710
630	711
630	712
630	713
630	714
630	715
630	716
630	717
630	718
630	719
630	720
630	721
630	722
630	723
630	724
630	725
630	726
630	727
630	728
630	729
631	632
631	633
631	634
631	635
631	636
631	637
631	638
631	639
631	642
631	645
631	646
631	647
631	648
631	649
631	650
631	652
631	654
631	663
631	665
631	666
631	667
631	668
631	669
631	670
631	671
631	672
631	673
631	674
631	675
631	676
631	678
631	679
631	680
631	681
631	682
631	683
631	684
631	685
631	686
631	687
631	688
631	690
631	691
631	692
631	693
631	694
631	700
631	704
631	710
631	711
631	716
631	729
631	730
632	633
632	634
632	635
632	636
632	637
632	638
632	639
632	640
632	641
632	642
632	643
632	644
632	645
632	646
632	647
632	648
632	649
632	650
632	651
632	652
632	653
632	654
632	655
632	656
632	657
632	658
632	659
632	660
632	661
632	662
632	663
632	664
632	665
632	666
632	667
632	668
632	669
632	670
632	671
632	672
632	673
632	674
632	675
632	676
632	677
632	678
632	679
632	680
632	681
632	682
632	683
632	684
632	685
632	686
632	687
632	690
632	691
632	692
632	693
632	694
632	695
632	696
632	697
632	698
632	699
632	700
632	701
632	704
632	705
632	706
632	707
632	708
632	710
632	711
632	713
632	714
632	715
632	717
632	718
632	719
632	720
632	721
632	723
632	724
632	725
632	726
632	727
632	728
632	729
632	732
632	733
632	734
632	735
632	736
632	737
632	739
632	741
632	742
632	743
632	744
632	747
632	748
632	751
632	752
632	754
632	756
632	759
632	763
632	764
632	765
632	766
632	767
632	768
632	769
632	770
632	771
632	772
632	773
632	774
632	775
632	776
632	777
632	778
632	779
632	780
632	781
632	782
632	783
632	784
633	634
633	635
633	636
633	637
633	638
633	639
633	640
633	641
633	642
633	643
633	644
633	645
633	646
633	647
633	648
633	649
633	650
633	651
633	652
633	653
633	654
633	655
633	656
633	657
633	659
633	661
633	663
633	664
633	665
633	666
633	667
633	668
633	669
633	670
633	671
633	672
633	673
633	674
633	675
633	676
633	677
633	678
633	679
633	680
633	681
633	682
633	683
633	684
633	685
633	686
633	687
633	690
633	691
633	692
633	693
633	694
633	695
633	696
633	697
633	698
633	699
633	700
633	701
633	702
633	703
633	704
633	705
633	707
633	708
633	710
633	711
633	712
633	713
633	714
633	715
633	716
633	717
633	718
633	719
633	720
633	723
633	725
633	726
633	727
633	729
633	730
633	732
633	733
633	734
633	735
633	736
633	739
633	740
633	741
633	742
633	743
633	744
633	747
633	748
633	750
633	752
633	756
633	757
633	763
633	766
633	769
633	774
633	775
633	779
633	781
633	782
633	785
633	786
633	787
633	788
633	789
633	790
634	635
634	636
634	637
634	638
634	639
634	640
634	641
634	642
634	643
634	644
634	645
634	646
634	647
634	648
634	649
634	650
634	651
634	652
634	654
634	655
634	656
634	657
634	658
634	661
634	663
634	664
634	665
634	666
634	668
634	669
634	670
634	671
634	672
634	673
634	674
634	675
634	677
634	678
634	679
634	680
634	681
634	682
634	683
634	684
634	685
634	686
634	687
634	690
634	691
634	692
634	693
634	694
634	695
634	696
634	697
634	698
634	699
634	700
634	701
634	702
634	704
634	705
634	707
634	708
634	709
634	710
634	711
634	712
634	713
634	714
634	715
634	716
634	717
634	723
634	726
634	727
634	728
634	729
634	730
634	733
634	735
634	741
634	742
634	744
634	751
634	757
634	759
634	771
634	773
634	781
634	785
634	788
634	794
634	800
634	801
634	802
634	803
634	804
635	636
635	637
635	645
635	648
635	650
635	651
635	665
635	666
635	668
635	669
635	672
635	673
635	677
635	678
635	679
635	680
635	684
635	685
635	686
635	687
635	691
635	692
635	693
635	694
635	701
635	702
636	637
636	638
636	639
636	641
636	642
636	644
636	645
636	646
636	647
636	648
636	649
636	650
636	651
636	652
636	653
636	654
636	655
636	663
636	665
636	666
636	668
636	669
636	672
636	673
636	674
636	676
636	678
636	679
636	680
636	681
636	682
636	683
636	684
636	685
636	686
636	687
636	691
636	692
636	693
636	694
636	695
636	696
636	697
636	700
636	704
636	707
636	708
636	712
636	713
636	714
636	715
636	716
636	723
636	739
636	742
636	747
637	638
637	639
637	645
637	646
637	648
637	649
637	651
637	663
637	665
637	666
637	667
637	668
637	669
637	671
637	672
637	673
637	674
637	678
637	679
637	680
637	681
637	682
637	685
637	686
637	687
637	691
637	692
637	702
637	723
638	639
638	640
638	641
638	642
638	644
638	645
638	648
638	649
638	652
638	653
638	655
638	659
638	662
638	663
638	665
638	666
638	667
638	668
638	669
638	670
638	671
638	672
638	674
638	675
638	676
638	678
638	679
638	680
638	681
638	682
638	683
638	684
638	685
638	686
638	687
638	691
638	692
638	693
638	694
638	699
638	700
638	704
638	707
638	710
638	711
638	724
638	731
638	732
638	737
638	739
638	764
638	805
638	806
639	640
639	641
639	643
639	644
639	645
639	646
639	647
639	648
639	649
639	650
639	654
639	662
639	663
639	665
639	666
639	667
639	668
639	669
639	670
639	671
639	672
639	673
639	674
639	675
639	676
639	678
639	679
639	680
639	681
639	682
639	683
639	684
639	685
639	686
639	687
639	692
639	693
639	694
639	695
639	700
639	701
639	704
639	706
639	710
639	711
639	732
639	739
639	764
639	807
639	808
640	641
640	642
640	643
640	644
640	645
640	646
640	647
640	648
640	649
640	650
640	651
640	652
640	653
640	654
640	655
640	656
640	657
640	658
640	659
640	660
640	661
640	662
640	663
640	669
640	671
640	672
640	674
640	675
640	676
640	681
640	682
640	683
640	684
640	685
640	687
640	693
640	695
640	696
640	697
640	699
640	700
640	701
640	702
640	704
640	705
640	706
640	707
640	710
640	711
640	713
640	715
640	716
640	717
640	718
640	719
640	722
640	723
640	724
640	730
640	731
640	732
640	733
640	734
640	735
640	736
640	737
640	738
640	739
640	741
640	742
640	748
640	751
640	752
640	760
640	761
640	763
640	764
640	766
640	767
640	768
640	771
640	772
640	773
640	779
640	780
640	781
640	782
640	794
640	795
640	797
640	800
640	805
640	806
640	808
640	810
640	811
640	813
640	814
640	818
640	820
640	821
640	828
640	832
640	833
640	834
640	849
640	855
640	856
641	642
641	643
641	644
641	645
641	646
641	647
641	648
641	649
641	650
641	651
641	653
641	655
641	659
641	662
641	663
641	671
641	672
641	675
641	676
641	681
641	682
641	684
641	686
641	687
641	693
641	694
641	702
641	703
641	711
641	730
641	731
641	732
641	737
641	739
641	764
641	767
641	768
641	806
641	808
641	809
641	810
641	818
641	862
642	643
642	644
642	645
642	646
642	647
642	648
642	649
642	650
642	651
642	652
642	653
642	654
642	655
642	656
642	658
642	659
642	660
642	661
642	662
642	663
642	664
642	672
642	674
642	682
642	683
642	684
642	685
642	686
642	687
642	694
642	695
642	696
642	697
642	698
642	699
642	702
642	704
642	707
642	708
642	711
642	713
642	714
642	715
642	716
642	717
642	718
642	719
642	720
642	722
642	725
642	726
642	727
642	728
642	729
642	730
642	731
642	732
642	734
642	735
642	737
642	738
642	739
642	742
642	743
642	744
642	747
642	752
642	757
642	764
642	769
642	772
642	773
642	779
642	780
642	782
642	785
642	794
642	800
642	804
642	806
642	814
642	830
642	831
642	842
642	845
642	870
643	644
643	645
643	646
643	647
643	648
643	649
643	650
643	651
643	652
643	653
643	654
643	655
643	663
643	672
643	674
643	681
643	682
643	683
643	684
643	686
643	687
643	693
643	694
643	695
643	700
643	702
643	704
643	711
643	714
643	717
643	718
643	719
643	732
643	736
643	744
643	761
643	806
644	645
644	646
644	647
644	648
644	649
644	651
644	652
644	653
644	654
644	655
644	656
644	662
644	663
644	672
644	673
644	674
644	682
644	683
644	684
644	685
644	686
644	687
644	693
644	694
644	695
644	696
644	698
644	699
644	700
644	701
644	702
644	703
644	704
644	707
644	708
644	710
644	711
644	712
644	713
644	716
644	717
644	718
644	719
644	723
644	726
644	727
644	731
644	732
644	733
644	734
644	737
644	739
644	741
644	743
644	744
644	759
644	764
644	769
644	773
644	774
644	793
644	795
644	878
644	880
645	646
645	647
645	648
645	649
645	650
645	651
645	652
645	653
645	654
645	655
645	656
645	657
645	659
645	662
645	663
645	665
645	666
645	668
645	669
645	671
645	672
645	673
645	674
645	675
645	676
645	677
645	678
645	681
645	682
645	683
645	684
645	685
645	686
645	687
645	690
645	691
645	692
645	693
645	694
645	695
645	696
645	698
645	699
645	700
645	701
645	704
645	705
645	706
645	708
645	710
645	711
645	715
645	717
645	718
645	719
645	723
645	725
645	726
645	727
645	732
645	733
645	734
645	735
645	736
645	739
645	741
645	742
645	743
645	744
645	747
645	761
645	764
645	774
645	779
645	793
645	800
645	806
645	841
646	647
646	648
646	649
646	650
646	651
646	652
646	653
646	654
646	655
646	656
646	657
646	661
646	662
646	663
646	664
646	666
646	672
646	673
646	674
646	675
646	678
646	680
646	681
646	682
646	684
646	685
646	686
646	687
646	691
646	692
646	694
646	695
646	696
646	697
646	698
646	699
646	701
646	702
646	703
646	704
646	705
646	707
646	708
646	711
646	712
646	713
646	714
646	715
646	716
646	717
646	718
646	720
646	723
646	726
646	727
646	729
646	730
646	732
646	734
646	739
646	740
646	741
646	742
646	764
646	766
646	772
646	775
646	780
646	785
646	786
646	788
646	793
646	794
646	795
646	809
646	811
646	830
646	871
646	884
646	885
647	648
647	649
647	650
647	651
647	652
647	653
647	654
647	655
647	656
647	657
647	662
647	663
647	666
647	668
647	669
647	672
647	673
647	674
647	677
647	678
647	679
647	680
647	681
647	682
647	684
647	685
647	686
647	687
647	691
647	692
647	693
647	694
647	695
647	696
647	697
647	699
647	700
647	701
647	702
647	703
647	704
647	705
647	706
647	708
647	710
647	711
647	712
647	713
647	714
647	715
647	716
647	717
647	723
647	725
647	727
647	729
647	730
647	731
647	732
647	734
647	740
647	741
647	742
647	743
647	747
647	751
647	757
647	764
647	766
647	768
647	769
647	785
647	793
647	794
647	805
647	809
647	810
647	873
647	886
648	649
648	650
648	651
648	652
648	653
648	654
648	655
648	656
648	657
648	658
648	660
648	661
648	662
648	663
648	664
648	665
648	666
648	668
648	669
648	670
648	671
648	672
648	673
648	674
648	675
648	676
648	677
648	678
648	679
648	680
648	681
648	682
648	683
648	684
648	685
648	686
648	687
648	691
648	692
648	693
648	694
648	695
648	696
648	697
648	698
648	699
648	700
648	701
648	702
648	703
648	704
648	705
648	707
648	708
648	710
648	711
648	712
648	713
648	714
648	715
648	716
648	717
648	718
648	719
648	720
648	723
648	725
648	726
648	727
648	729
648	730
648	732
648	734
648	735
648	739
648	741
648	742
648	743
648	744
648	747
648	748
648	752
648	757
648	759
648	761
648	764
648	766
648	769
648	770
648	772
648	773
648	774
648	775
648	776
648	780
648	782
648	785
648	788
648	793
648	794
648	795
648	799
648	800
648	804
648	809
648	814
648	815
648	848
648	878
648	886
649	650
649	651
649	652
649	653
649	654
649	655
649	656
649	657
649	661
649	663
649	664
649	665
649	666
649	668
649	669
649	672
649	673
649	674
649	677
649	678
649	679
649	680
649	681
649	682
649	684
649	685
649	686
649	687
649	691
649	692
649	694
649	696
649	697
649	698
649	699
649	700
649	701
649	702
649	703
649	704
649	705
649	708
649	711
649	712
649	713
649	714
649	715
649	716
649	717
649	720
649	723
649	726
649	727
649	729
649	730
649	735
649	740
649	741
649	742
649	747
649	748
649	751
649	757
649	759
649	768
649	773
649	775
649	785
649	788
649	793
649	809
649	821
649	845
649	871
650	651
650	652
650	653
650	654
650	655
650	656
650	663
650	666
650	672
650	673
650	677
650	678
650	679
650	680
650	681
650	682
650	684
650	685
650	686
650	687
650	691
650	692
650	693
650	694
650	696
650	697
650	698
650	701
650	702
650	703
650	704
650	705
650	711
650	712
650	713
650	714
650	715
650	716
650	719
650	720
650	723
650	726
650	727
650	730
650	732
650	739
650	740
650	741
650	742
650	764
650	765
650	766
650	773
650	785
650	786
650	787
650	792
650	793
650	794
650	796
650	800
650	801
650	809
650	830
650	871
651	652
651	653
651	654
651	655
651	656
651	657
651	660
651	661
651	663
651	664
651	666
651	669
651	672
651	673
651	674
651	678
651	680
651	684
651	685
651	686
651	687
651	691
651	694
651	695
651	696
651	697
651	698
651	699
651	701
651	702
651	703
651	704
651	705
651	707
651	708
651	709
651	711
651	712
651	713
651	714
651	715
651	716
651	717
651	718
651	719
651	720
651	723
651	725
651	726
651	727
651	729
651	730
651	732
651	734
651	735
651	737
651	739
651	740
651	741
651	742
651	743
651	750
651	751
651	754
651	757
651	759
651	760
651	764
651	765
651	766
651	769
651	772
651	773
651	776
651	779
651	780
651	785
651	786
651	787
651	788
651	792
651	793
651	794
651	795
651	796
651	800
651	801
651	802
651	805
651	808
651	809
651	810
651	813
651	830
651	831
651	871
651	885
651	887
651	888
651	889
651	890
651	891
652	653
652	654
652	655
652	656
652	657
652	658
652	659
652	660
652	661
652	662
652	663
652	664
652	669
652	672
652	673
652	674
652	678
652	680
652	681
652	683
652	684
652	685
652	686
652	687
652	690
652	692
652	694
652	695
652	696
652	697
652	698
652	699
652	701
652	702
652	703
652	704
652	705
652	706
652	707
652	708
652	709
652	711
652	712
652	713
652	714
652	715
652	716
652	717
652	718
652	719
652	720
652	721
652	722
652	723
652	724
652	725
652	726
652	727
652	729
652	730
652	731
652	732
652	733
652	734
652	736
652	737
652	738
652	740
652	741
652	742
652	743
652	744
652	745
652	747
652	748
652	749
652	750
652	751
652	752
652	754
652	757
652	759
652	761
652	764
652	765
652	766
652	767
652	768
652	769
652	772
652	773
652	774
652	775
652	780
652	785
652	786
652	787
652	788
652	792
652	793
652	794
652	795
652	796
652	799
652	800
652	801
652	802
652	805
652	806
652	808
652	810
652	811
652	814
652	818
652	821
652	830
652	831
652	841
652	871
652	872
652	873
652	874
652	878
652	879
652	884
652	886
652	887
652	888
652	889
652	890
652	894
653	654
653	655
653	656
653	657
653	658
653	659
653	660
653	661
653	662
653	663
653	671
653	672
653	673
653	674
653	681
653	682
653	683
653	684
653	685
653	686
653	687
653	693
653	694
653	695
653	696
653	697
653	698
653	699
653	700
653	704
653	705
653	706
653	707
653	708
653	711
653	712
653	713
653	714
653	715
653	716
653	717
653	718
653	719
653	722
653	723
653	725
653	726
653	727
653	729
653	730
653	731
653	732
653	734
653	736
653	737
653	738
653	739
653	740
653	741
653	742
653	743
653	744
653	748
653	749
653	752
653	757
653	759
653	761
653	764
653	766
653	767
653	769
653	772
653	773
653	774
653	775
653	777
653	783
653	785
653	786
653	792
653	793
653	800
653	805
653	806
653	810
653	831
653	832
653	878
654	655
654	656
654	657
654	658
654	659
654	660
654	661
654	662
654	663
654	664
654	672
654	674
654	683
654	684
654	685
654	686
654	687
654	690
654	693
654	694
654	695
654	696
654	697
654	698
654	699
654	700
654	702
654	704
654	705
654	706
654	707
654	708
654	709
654	710
654	711
654	712
654	713
654	714
654	715
654	716
654	717
654	718
654	719
654	720
654	721
654	722
654	723
654	724
654	725
654	726
654	727
654	728
654	729
654	730
654	731
654	732
654	733
654	734
654	735
654	736
654	737
654	738
654	739
654	740
654	741
654	742
654	743
654	744
654	745
654	746
654	747
654	748
654	749
654	751
654	752
654	753
654	755
654	756
654	757
654	758
654	759
654	760
654	761
654	763
654	764
654	765
654	766
654	767
654	768
654	769
654	771
654	772
654	773
654	774
654	775
654	776
654	779
654	781
654	782
654	783
654	784
654	786
654	787
654	788
654	789
654	791
654	792
654	794
654	795
654	798
654	799
654	800
654	801
654	803
654	804
654	805
654	806
654	807
654	808
654	810
654	811
654	812
654	813
654	814
654	815
654	816
654	818
654	820
654	824
654	825
654	826
654	828
654	831
654	832
654	834
654	837
654	838
654	842
654	843
654	845
654	848
654	849
654	850
654	851
654	852
654	853
654	856
654	859
654	860
654	861
654	862
654	868
654	869
654	870
654	872
654	874
654	877
654	883
654	885
654	888
654	890
654	892
654	893
654	897
654	898
654	899
654	900
654	901
654	902
654	904
654	906
654	907
654	909
654	911
654	912
654	913
654	914
654	915
654	916
654	917
655	656
655	657
655	658
655	659
655	660
655	661
655	662
655	663
655	664
655	669
655	671
655	672
655	673
655	674
655	683
655	684
655	685
655	686
655	687
655	693
655	695
655	696
655	697
655	698
655	699
655	700
655	701
655	703
655	704
655	705
655	706
655	707
655	708
655	711
655	713
655	714
655	715
655	716
655	717
655	718
655	719
655	720
655	721
655	722
655	723
655	725
655	726
655	727
655	728
655	729
655	730
655	731
655	732
655	733
655	734
655	735
655	736
655	737
655	738
655	739
655	740
655	741
655	742
655	743
655	744
655	746
655	747
655	748
655	749
655	751
655	752
655	756
655	760
655	761
655	763
655	765
655	766
655	767
655	768
655	771
655	772
655	773
655	774
655	775
655	776
655	778
655	779
655	782
655	784
655	786
655	787
655	791
655	792
655	793
655	794
655	795
655	799
655	800
655	804
655	805
655	806
655	807
655	808
655	810
655	811
655	812
655	813
655	814
655	815
655	828
655	831
655	834
655	837
655	845
655	848
655	850
655	853
655	856
655	857
655	868
655	869
655	877
655	885
655	889
655	893
655	900
655	901
655	902
655	905
655	918
655	919
656	657
656	658
656	659
656	660
656	661
656	662
656	663
656	664
656	672
656	674
656	684
656	685
656	686
656	687
656	689
656	693
656	694
656	696
656	697
656	698
656	699
656	700
656	702
656	704
656	705
656	706
656	707
656	708
656	709
656	711
656	712
656	713
656	714
656	715
656	716
656	717
656	718
656	719
656	720
656	721
656	722
656	723
656	724
656	725
656	726
656	727
656	728
656	729
656	730
656	732
656	733
656	734
656	735
656	736
656	737
656	740
656	741
656	742
656	743
656	744
656	745
656	746
656	747
656	748
656	749
656	750
656	751
656	752
656	753
656	754
656	757
656	758
656	759
656	763
656	765
656	766
656	767
656	768
656	769
656	771
656	772
656	773
656	774
656	775
656	779
656	780
656	786
656	787
656	788
656	793
656	794
656	795
656	796
656	797
656	798
656	799
656	800
656	801
656	802
656	803
656	805
656	806
656	807
656	808
656	810
656	811
656	814
656	819
656	820
656	821
656	822
656	823
656	826
656	827
656	829
656	831
656	832
656	834
656	835
656	836
656	837
656	839
656	840
656	841
656	845
656	860
656	861
656	863
656	869
656	870
656	872
656	873
656	874
656	878
656	879
656	884
656	886
656	887
656	888
656	889
656	890
656	891
656	893
656	894
656	895
656	896
656	901
656	916
656	925
656	926
657	658
657	659
657	660
657	661
657	662
657	664
657	672
657	674
657	683
657	684
657	685
657	686
657	687
657	689
657	695
657	696
657	697
657	698
657	699
657	704
657	705
657	706
657	707
657	708
657	709
657	711
657	713
657	714
657	715
657	716
657	717
657	718
657	719
657	720
657	721
657	722
657	723
657	724
657	725
657	726
657	727
657	728
657	729
657	730
657	732
657	733
657	734
657	737
657	739
657	741
657	742
657	743
657	744
657	745
657	746
657	747
657	748
657	749
657	750
657	751
657	752
657	753
657	754
657	756
657	757
657	759
657	761
657	763
657	766
657	767
657	768
657	769
657	771
657	772
657	773
657	774
657	775
657	780
657	782
657	786
657	787
657	788
657	794
657	795
657	796
657	797
657	798
657	800
657	801
657	802
657	806
657	807
657	808
657	810
657	811
657	812
657	814
657	815
657	819
657	820
657	821
657	822
657	823
657	824
657	826
657	827
657	828
657	831
657	834
657	835
657	836
657	837
657	839
657	840
657	841
657	856
657	860
657	861
657	870
657	872
657	873
657	878
657	879
657	884
657	886
657	887
657	888
657	895
657	896
657	901
657	916
657	917
657	925
657	926
657	928
657	929
658	659
658	660
658	662
658	663
658	664
658	674
658	690
658	693
658	695
658	696
658	699
658	704
658	705
658	707
658	714
658	717
658	718
658	719
658	720
658	721
658	722
658	723
658	724
658	726
658	731
658	732
658	733
658	734
658	737
658	741
658	743
658	744
658	745
658	746
658	747
658	748
658	749
658	752
658	753
658	759
658	763
658	766
658	767
658	768
658	771
658	776
658	787
658	794
658	795
658	796
658	797
658	800
658	801
658	802
658	805
658	806
658	807
658	808
658	810
658	811
658	818
658	819
658	820
658	834
658	835
658	836
658	837
658	839
658	861
658	893
658	896
658	901
658	916
658	926
658	928
659	660
659	661
659	662
659	664
659	672
659	674
659	681
659	682
659	688
659	696
659	697
659	698
659	699
659	704
659	705
659	706
659	707
659	708
659	709
659	711
659	714
659	715
659	717
659	718
659	719
659	720
659	721
659	722
659	723
659	724
659	725
659	726
659	727
659	728
659	729
659	731
659	732
659	733
659	734
659	735
659	736
659	737
659	738
659	739
659	741
659	743
659	744
659	745
659	746
659	747
659	748
659	749
659	751
659	752
659	753
659	754
659	755
659	756
659	757
659	760
659	761
659	763
659	764
659	765
659	766
659	767
659	768
659	769
659	770
659	771
659	773
659	774
659	775
659	779
659	784
659	786
659	787
659	788
659	791
659	794
659	795
659	796
659	797
659	799
659	800
659	801
659	802
659	803
659	805
659	806
659	807
659	808
659	810
659	811
659	813
659	814
659	818
659	819
659	820
659	821
659	831
659	832
659	833
659	834
659	835
659	836
659	837
659	839
659	841
659	842
659	847
659	848
659	850
659	851
659	856
659	860
659	861
659	873
659	876
659	877
659	890
659	893
659	896
659	901
659	916
659	928
659	937
660	661
660	662
660	664
660	674
660	687
660	688
660	697
660	698
660	699
660	704
660	705
660	706
660	707
660	708
660	713
660	717
660	719
660	722
660	724
660	725
660	726
660	727
660	728
660	729
660	731
660	732
660	734
660	735
660	736
660	737
660	738
660	739
660	743
660	747
660	748
660	751
660	752
660	753
660	754
660	755
660	756
660	757
660	758
660	759
660	760
660	761
660	762
660	763
660	768
660	771
660	772
660	773
660	774
660	775
660	776
660	777
660	778
660	779
660	780
660	781
660	782
660	783
660	784
660	788
660	789
660	790
660	791
660	797
660	798
660	799
660	804
660	806
660	808
660	810
660	811
660	812
660	813
660	814
660	815
660	816
660	817
660	818
660	819
660	820
660	821
660	822
660	823
660	824
660	825
660	826
660	827
660	828
660	829
660	832
660	833
660	834
660	837
660	839
660	841
660	842
660	843
660	844
660	845
660	846
660	847
660	848
660	849
660	850
660	851
660	852
660	853
660	854
660	855
660	856
660	857
660	858
660	859
660	860
660	861
660	862
660	863
660	864
660	865
660	866
660	867
660	869
660	870
660	872
660	874
660	875
660	876
660	877
660	881
660	882
660	883
660	884
660	885
660	891
660	892
660	897
660	898
660	899
660	900
660	902
660	903
660	905
660	907
660	908
660	909
660	910
660	911
660	912
660	913
660	914
660	917
660	919
660	921
660	922
660	929
660	931
660	932
660	934
660	936
660	937
660	938
660	939
660	940
660	941
660	943
660	944
660	945
660	947
660	949
660	950
660	951
660	954
660	956
660	957
660	959
660	962
660	966
660	967
660	968
660	969
660	970
660	971
660	972
660	974
660	975
660	976
660	981
660	982
660	984
660	985
660	991
660	997
660	1006
661	662
661	664
661	666
661	674
661	679
661	684
661	695
661	697
661	698
661	699
661	704
661	705
661	706
661	707
661	708
661	709
661	717
661	718
661	721
661	722
661	724
661	725
661	726
661	727
661	728
661	729
661	732
661	734
661	735
661	736
661	737
661	738
661	747
661	749
661	751
661	753
661	755
661	756
661	758
661	759
661	760
661	761
661	762
661	773
661	774
661	775
661	776
661	777
661	778
661	779
661	780
661	781
661	782
661	783
661	784
661	788
661	789
661	790
661	791
661	798
661	799
661	804
661	806
661	808
661	810
661	811
661	812
661	813
661	814
661	815
661	816
661	821
661	826
661	827
661	828
661	829
661	837
661	841
661	842
661	843
661	844
661	845
661	846
661	847
661	848
661	849
661	850
661	851
661	853
661	855
661	856
661	857
661	858
661	859
661	865
661	869
661	870
661	872
661	874
661	875
661	876
661	877
661	881
661	882
661	883
661	885
661	892
661	897
661	898
661	899
661	900
661	902
661	904
661	905
661	906
661	907
661	908
661	910
661	911
661	912
661	913
661	918
661	919
661	920
661	921
661	922
661	923
661	924
661	930
661	931
661	932
661	936
661	937
661	938
661	944
661	949
661	950
661	952
661	955
661	956
661	964
661	977
661	992
661	993
661	995
661	996
661	999
662	663
662	664
662	668
662	672
662	675
662	682
662	688
662	689
662	690
662	693
662	694
662	695
662	696
662	699
662	704
662	705
662	706
662	707
662	713
662	714
662	715
662	716
662	717
662	718
662	719
662	720
662	721
662	722
662	724
662	726
662	727
662	729
662	730
662	731
662	732
662	734
662	735
662	736
662	737
662	738
662	739
662	741
662	742
662	743
662	744
662	745
662	747
662	748
662	749
662	751
662	752
662	753
662	756
662	760
662	761
662	762
662	763
662	764
662	766
662	767
662	768
662	771
662	776
662	782
662	792
662	797
662	800
662	801
662	803
662	805
662	806
662	807
662	808
662	810
662	811
662	812
662	814
662	815
662	816
662	818
662	819
662	820
662	821
662	822
662	829
662	831
662	832
662	833
662	834
662	836
662	837
662	849
662	856
662	860
662	863
662	864
662	868
662	872
662	893
662	916
662	917
662	962
662	966
663	665
663	666
663	667
663	668
663	669
663	670
663	671
663	672
663	673
663	674
663	675
663	676
663	678
663	679
663	680
663	681
663	682
663	683
663	684
663	685
663	686
663	687
663	690
663	691
663	692
663	693
663	694
663	696
663	700
663	701
663	704
663	707
663	710
663	711
663	717
663	718
663	722
663	726
663	727
663	729
663	731
663	732
663	734
663	737
663	748
663	763
663	764
663	768
663	818
664	672
664	673
664	685
664	688
664	697
664	698
664	699
664	704
664	705
664	707
664	708
664	717
664	718
664	722
664	724
664	726
664	727
664	728
664	729
664	732
664	734
664	735
664	736
664	738
664	744
664	747
664	748
664	749
664	752
664	755
664	756
664	757
664	758
664	759
664	760
664	761
664	762
664	773
664	774
664	775
664	776
664	777
664	778
664	779
664	780
664	781
664	782
664	783
664	784
664	788
664	789
664	790
664	791
664	799
664	804
664	806
664	812
664	813
664	814
664	815
664	817
664	823
664	824
664	825
664	826
664	828
664	829
664	842
664	843
664	844
664	845
664	846
664	847
664	848
664	849
664	850
664	851
664	852
664	853
664	855
664	856
664	857
664	858
664	859
664	860
664	862
664	863
664	865
664	866
664	867
664	869
664	875
664	876
664	877
664	882
664	883
664	885
664	891
664	892
664	897
664	898
664	899
664	900
664	902
664	903
664	904
664	905
664	906
664	907
664	908
664	909
664	910
664	911
664	912
664	913
664	914
664	915
664	917
664	919
664	921
664	922
664	923
664	924
664	932
664	936
664	937
664	938
664	939
664	941
664	943
664	944
664	945
664	947
664	949
664	950
664	952
664	954
664	955
664	956
664	962
664	963
664	971
664	974
664	977
664	982
664	990
664	992
664	997
664	1001
665	666
665	667
665	668
665	669
665	670
665	671
665	672
665	673
665	674
665	675
665	676
665	677
665	678
665	679
665	680
665	681
665	682
665	683
665	684
665	685
665	686
665	687
665	688
665	689
665	690
666	668
666	669
666	671
666	672
666	673
666	674
666	677
666	678
666	679
666	680
666	681
666	682
666	684
666	685
666	686
666	687
666	691
666	692
666	693
666	694
666	695
666	697
666	698
666	699
666	700
666	701
666	702
666	703
666	704
666	705
666	706
666	707
666	708
666	709
667	668
667	669
667	670
667	671
667	672
667	675
667	676
667	681
667	682
667	685
667	692
668	669
668	670
668	671
668	672
668	673
668	674
668	675
668	676
668	677
668	678
668	680
668	681
668	682
668	683
668	685
668	686
668	687
668	688
668	689
668	690
668	692
668	693
668	694
668	700
668	710
669	670
669	671
669	672
669	673
669	674
669	675
669	676
669	678
669	679
669	680
669	681
669	682
669	683
669	684
669	685
669	686
669	687
669	692
669	693
669	694
669	700
669	701
669	710
669	711
669	719
669	724
669	732
669	738
670	671
670	672
670	674
670	675
670	676
670	681
670	682
670	685
670	710
671	672
671	673
671	674
671	675
671	676
671	681
671	682
671	683
671	684
671	685
671	686
671	687
671	693
671	694
671	700
671	710
672	673
672	674
672	675
672	676
672	678
672	679
672	680
672	681
672	682
672	683
672	684
672	685
672	686
672	687
672	690
672	691
672	692
672	693
672	694
672	695
672	696
672	697
672	698
672	699
672	700
672	701
672	702
672	704
672	705
672	707
672	708
672	710
672	711
672	715
672	716
672	717
672	718
672	719
672	720
672	721
672	723
672	724
672	725
672	726
672	727
672	729
672	730
672	732
672	733
672	734
672	735
672	739
672	740
672	741
672	742
672	743
672	744
672	745
672	746
672	747
672	748
672	749
672	750
672	751
672	752
672	753
672	754
672	755
672	756
672	757
672	758
672	759
672	760
672	761
672	762
672	763
673	674
673	675
673	677
673	678
673	679
673	680
673	681
673	682
673	684
673	685
673	686
673	687
673	690
673	691
673	692
673	693
673	694
673	695
673	696
673	699
673	701
673	702
673	704
673	707
673	708
673	710
673	712
673	713
673	715
673	716
673	723
673	727
673	734
673	735
673	772
673	774
673	782
673	785
674	675
674	676
674	678
674	681
674	682
674	683
674	684
674	685
674	686
674	687
674	691
674	693
674	694
674	695
674	699
674	700
674	704
674	705
674	708
674	710
674	711
674	714
674	717
674	718
674	727
674	732
674	738
674	739
674	748
674	753
674	761
675	676
675	681
675	682
675	683
675	684
675	685
675	686
675	693
675	694
675	700
675	710
675	732
675	761
675	782
675	791
676	681
676	682
676	683
676	684
676	685
676	686
676	693
676	694
676	710
676	732
676	737
676	761
677	678
677	679
677	680
677	681
677	682
677	684
677	686
677	687
677	691
677	692
677	694
677	701
677	704
677	713
678	679
678	680
678	681
678	682
678	684
678	685
678	686
678	687
678	691
678	692
678	694
678	701
678	702
678	703
678	707
678	714
678	730
678	785
679	680
679	681
679	685
679	686
679	687
679	691
679	692
679	694
679	700
679	703
679	723
679	785
680	684
680	685
680	686
680	687
680	691
680	692
680	693
680	694
680	696
680	697
680	704
680	713
680	716
680	726
680	785
681	682
681	683
681	684
681	685
681	686
681	687
681	692
681	693
681	694
681	700
681	701
681	710
681	711
681	722
681	731
681	732
681	739
681	763
681	764
682	683
682	684
682	685
682	686
682	687
682	692
682	693
682	694
682	700
682	701
682	703
682	710
682	711
682	718
682	731
682	732
682	737
682	739
682	761
682	764
682	768
682	779
682	806
683	684
683	685
683	686
683	687
683	693
683	696
683	700
683	710
683	717
683	726
683	741
684	685
684	686
684	687
684	691
684	692
684	694
684	696
684	697
684	699
684	700
684	701
684	702
684	703
684	704
684	708
684	710
684	711
684	712
684	713
684	714
684	715
684	716
684	718
684	719
684	723
684	725
684	729
684	730
684	739
684	741
684	742
684	766
684	780
684	785
684	786
684	793
684	809
684	832
685	686
685	687
685	691
685	692
685	693
685	694
685	695
685	696
685	697
685	699
685	700
685	701
685	702
685	703
685	704
685	707
685	710
685	712
685	713
685	715
685	716
685	717
685	724
685	726
685	729
685	730
685	732
685	733
685	734
685	742
685	756
685	777
685	785
685	786
685	791
685	794
685	841
686	687
686	691
686	692
686	693
686	694
686	695
686	696
686	697
686	698
686	699
686	700
686	701
686	702
686	703
686	704
686	705
686	707
686	708
686	710
686	711
686	712
686	713
686	714
686	715
686	716
686	717
686	719
686	723
686	725
686	726
686	727
686	728
686	730
686	732
686	737
686	740
686	741
686	742
686	747
686	756
686	757
686	765
686	766
686	780
686	785
686	786
686	793
686	794
686	809
686	887
687	691
687	692
687	693
687	694
687	695
687	696
687	697
687	698
687	699
687	700
687	701
687	702
687	703
687	704
687	705
687	706
687	707
687	708
687	710
687	711
687	712
687	713
687	714
687	715
687	716
687	717
687	718
687	720
687	723
687	725
687	726
687	727
687	729
687	730
687	732
687	733
687	734
687	735
687	740
687	741
687	742
687	743
687	757
687	765
687	766
687	768
687	773
687	780
687	785
687	786
687	788
687	792
687	793
687	794
687	795
687	796
687	800
687	801
687	809
687	830
687	871
688	689
688	690
688	726
688	734
688	735
688	736
688	737
688	738
688	756
688	762
688	763
688	776
688	778
688	779
688	782
688	812
688	814
688	817
688	828
688	829
688	849
688	855
688	856
688	857
688	863
688	866
688	868
688	883
688	885
688	899
688	911
688	916
688	917
688	933
688	934
688	935
688	940
688	943
688	947
688	951
688	954
688	957
688	959
688	962
688	963
688	964
688	965
688	966
688	967
688	968
688	969
688	970
688	975
688	976
688	986
688	990
688	991
688	1002
688	1007
688	1008
688	1009
689	690
689	722
689	724
689	737
689	753
689	762
689	763
689	767
689	768
689	806
689	808
689	810
689	829
689	834
689	868
689	916
689	917
689	933
689	934
689	935
689	954
689	959
689	962
689	964
689	965
689	966
689	985
690	704
690	731
690	732
690	737
690	739
690	763
690	868
690	916
690	917
690	933
690	934
690	940
690	962
690	965
690	966
691	692
691	694
691	701
691	702
691	704
691	714
691	723
692	694
692	701
692	702
692	703
692	712
692	713
692	716
692	723
692	730
692	740
692	792
693	700
693	704
693	709
693	710
693	711
693	715
693	727
693	732
693	764
693	779
693	806
694	696
694	697
694	699
694	701
694	702
694	703
694	704
694	708
694	712
694	713
694	716
694	720
694	723
694	725
694	726
694	729
694	730
694	740
694	742
694	757
694	773
694	774
694	780
694	785
694	793
694	809
694	871
695	696
695	700
695	704
695	711
695	712
695	713
695	716
695	717
695	718
695	719
695	721
695	722
695	725
695	730
695	731
695	732
695	734
695	739
695	744
695	764
695	806
695	869
696	697
696	698
696	699
696	700
696	701
696	702
696	703
696	704
696	705
696	707
696	708
696	709
696	712
696	713
696	714
696	715
696	716
696	717
696	718
696	719
696	720
696	721
696	722
696	723
696	724
696	725
696	726
696	727
696	728
696	729
696	730
696	732
696	734
696	736
696	737
696	740
696	741
696	742
696	743
696	744
696	745
696	747
696	748
696	749
696	750
696	751
696	753
696	754
696	757
696	759
696	763
696	765
696	766
696	767
696	768
696	769
696	771
696	772
696	773
696	774
696	775
696	780
696	782
696	786
696	787
696	788
696	792
696	793
696	794
696	795
696	796
696	797
696	799
696	800
696	801
696	802
696	803
696	805
696	806
696	807
696	808
696	810
696	811
696	830
696	831
696	836
696	837
696	839
696	841
696	870
696	872
696	873
696	878
696	879
696	880
696	884
696	886
696	887
696	888
696	890
696	893
696	894
696	896
696	897
697	698
697	699
697	704
697	705
697	706
697	707
697	708
697	709
697	711
697	712
697	713
697	714
697	715
697	716
697	717
697	718
697	719
697	720
697	722
697	723
697	724
697	725
697	726
697	727
697	728
697	729
697	730
697	732
697	733
697	734
697	738
697	739
697	740
697	741
697	742
697	743
697	744
697	745
697	747
697	748
697	749
697	750
697	751
697	752
697	753
697	754
697	757
697	758
697	759
697	762
697	765
697	766
697	767
697	769
697	771
697	772
697	773
697	774
697	775
697	780
697	785
697	786
697	787
697	788
697	792
697	794
697	795
697	796
697	797
697	798
697	800
697	801
697	802
697	808
697	810
697	811
697	812
697	814
697	821
697	822
697	823
697	824
697	827
697	831
697	835
697	836
697	837
697	839
697	840
697	841
697	860
697	862
697	870
697	872
697	873
697	878
697	879
697	880
697	884
697	886
697	887
697	888
697	889
697	890
697	891
697	895
697	896
697	925
698	699
698	704
698	705
698	707
698	708
698	709
698	711
698	713
698	714
698	715
698	716
698	717
698	718
698	719
698	720
698	722
698	724
698	725
698	726
698	727
698	728
698	729
698	732
698	734
698	735
698	736
698	738
698	741
698	747
698	748
698	751
698	752
698	754
698	755
698	756
698	757
698	758
698	759
698	762
698	767
698	769
698	772
698	773
698	774
698	775
698	776
698	778
698	779
698	780
698	781
698	782
698	788
698	794
698	797
698	798
698	800
698	804
698	808
698	810
698	811
698	812
698	813
698	814
698	815
698	825
698	827
698	841
698	842
698	844
698	845
698	846
698	847
698	848
698	856
698	865
698	867
698	869
698	870
698	872
698	874
698	875
698	876
698	878
698	879
698	881
698	897
698	898
698	900
698	902
698	911
698	912
698	930
698	931
698	952
698	992
698	993
699	704
699	705
699	706
699	707
699	708
699	709
699	711
699	714
699	715
699	716
699	717
699	718
699	719
699	720
699	721
699	722
699	723
699	724
699	725
699	726
699	727
699	728
699	729
699	730
699	732
699	733
699	734
699	735
699	736
699	737
699	738
699	741
699	743
699	744
699	745
699	747
699	748
699	749
699	751
699	752
699	753
699	754
699	755
699	756
699	757
699	758
699	759
699	760
699	761
699	762
699	763
699	767
699	769
699	772
699	773
699	774
699	775
699	776
699	777
699	778
699	779
699	780
699	781
699	782
699	783
699	784
699	788
699	797
699	798
699	799
699	804
699	805
699	806
699	810
699	812
699	813
699	814
699	815
699	816
699	821
699	822
699	825
699	826
699	827
699	828
699	829
699	837
699	840
699	841
699	842
699	843
699	844
699	845
699	846
699	847
699	848
699	849
699	850
699	851
699	853
699	856
699	857
699	858
699	859
699	863
699	865
699	866
699	869
699	870
699	872
699	874
699	875
699	876
699	877
699	878
699	879
699	882
699	883
699	885
699	891
699	897
699	898
699	899
699	900
699	902
699	903
699	905
699	907
699	908
699	911
699	912
699	924
699	931
699	932
699	936
699	937
699	938
699	949
699	950
699	952
699	954
699	955
699	956
699	977
699	992
699	993
699	999
700	704
700	710
700	711
700	714
700	716
700	717
700	719
700	722
700	741
700	766
700	768
700	782
701	702
701	703
701	712
701	713
701	715
701	716
701	723
701	726
701	728
701	730
701	740
701	741
701	742
701	748
701	765
701	785
701	792
701	793
701	809
701	871
702	703
702	704
702	711
702	712
702	713
702	714
702	715
702	716
702	717
702	720
702	723
702	725
702	727
702	730
702	732
702	735
702	740
702	741
702	742
702	754
702	764
702	765
702	766
702	785
702	786
702	787
702	792
702	793
702	794
702	796
702	800
702	801
702	809
702	830
702	831
702	871
702	885
703	708
703	712
703	713
703	714
703	715
703	716
703	723
703	730
703	734
703	740
703	741
703	742
703	785
703	793
703	809
703	830
703	871
704	705
704	706
704	707
704	708
704	709
704	711
704	712
704	713
704	714
704	715
704	716
704	717
704	718
704	719
704	720
704	721
704	722
704	723
704	724
704	725
704	726
704	727
704	728
704	729
704	730
704	732
704	734
704	735
704	736
704	737
704	738
704	739
704	740
704	741
704	742
704	743
704	744
704	745
704	746
704	747
704	748
704	749
704	750
704	751
704	752
704	753
704	754
704	756
704	757
704	759
704	760
704	761
704	763
704	765
704	766
704	767
704	768
704	769
704	771
704	772
704	773
704	774
704	775
704	776
704	780
704	782
704	786
704	787
704	788
704	792
704	793
704	794
704	795
704	796
704	797
704	798
704	799
704	800
704	802
704	803
704	805
704	806
704	807
704	808
704	810
704	811
704	818
704	820
704	828
704	831
704	832
704	834
704	836
704	837
704	838
704	839
704	840
704	841
704	843
704	844
704	845
704	860
704	861
704	868
704	869
704	870
704	873
704	874
704	878
704	879
704	887
704	888
704	890
704	893
704	896
704	901
704	916
704	924
705	706
705	707
705	708
705	709
705	714
705	715
705	716
705	717
705	720
705	722
705	723
705	724
705	725
705	726
705	727
705	729
705	732
705	733
705	737
705	738
705	740
705	747
705	748
705	750
705	751
705	752
705	753
705	754
705	757
705	759
705	763
705	766
705	769
705	770
705	771
705	772
705	773
705	774
705	780
705	787
705	788
705	794
705	795
705	796
705	797
705	800
705	801
705	806
705	810
705	811
705	812
705	819
705	820
705	821
705	822
705	823
705	824
705	825
705	834
705	835
705	836
705	837
705	839
705	840
705	841
705	860
705	861
705	873
705	878
705	879
705	880
705	884
705	886
705	887
705	888
705	889
705	890
705	925
706	707
706	709
706	719
706	720
706	722
706	723
706	724
706	725
706	727
706	731
706	732
706	733
706	735
706	736
706	737
706	738
706	745
706	746
706	747
706	748
706	750
706	751
706	752
706	753
706	756
706	761
706	763
706	764
706	768
706	769
706	770
706	771
706	772
706	773
706	788
706	797
706	802
706	806
706	808
706	810
706	811
706	815
706	819
706	821
706	822
706	823
706	826
706	834
706	835
706	836
706	837
706	839
706	840
706	848
706	860
706	861
706	873
706	878
706	884
706	888
706	891
706	896
706	925
706	926
706	927
706	928
707	708
707	709
707	711
707	714
707	715
707	716
707	717
707	719
707	720
707	721
707	722
707	723
707	724
707	725
707	726
707	727
707	728
707	729
707	730
707	731
707	732
707	733
707	734
707	735
707	736
707	738
707	739
707	741
707	742
707	743
707	745
707	747
707	749
707	751
707	752
707	754
707	755
707	756
707	757
707	758
707	759
707	760
707	761
707	762
707	767
707	768
707	772
707	773
707	774
707	775
707	776
707	778
707	779
707	780
707	782
707	788
707	790
707	791
707	794
707	797
707	798
707	799
707	800
707	804
707	806
707	808
707	810
707	811
707	812
707	813
707	814
707	815
707	817
707	821
707	822
707	823
707	824
707	825
707	826
707	827
707	828
707	829
707	835
707	836
707	839
707	841
707	842
707	843
707	844
707	845
707	846
707	847
707	848
707	849
707	850
707	851
707	853
707	855
707	856
707	857
707	858
707	859
707	860
707	862
707	863
707	865
707	867
707	869
707	870
707	872
707	873
707	874
707	875
707	876
707	877
707	878
707	879
707	882
707	883
707	886
707	887
707	888
707	889
707	891
707	892
707	897
707	899
707	900
707	901
707	902
707	903
707	905
707	908
707	910
707	912
707	913
707	917
707	921
707	922
707	929
707	936
707	938
707	941
707	943
707	982
708	709
708	714
708	715
708	716
708	717
708	718
708	719
708	720
708	722
708	723
708	724
708	725
708	726
708	727
708	728
708	729
708	732
708	734
708	735
708	736
708	737
708	738
708	741
708	743
708	744
708	747
708	748
708	749
708	751
708	752
708	754
708	755
708	756
708	757
708	758
708	759
708	760
708	761
708	762
708	766
708	767
708	769
708	772
708	773
708	774
708	775
708	776
708	777
708	778
708	779
708	780
708	781
708	782
708	783
708	784
708	786
708	788
708	791
708	794
708	796
708	797
708	798
708	799
708	804
708	806
708	810
708	812
708	813
708	814
708	815
708	817
708	821
708	824
708	825
708	826
708	827
708	828
708	829
708	836
708	837
708	841
708	842
708	843
708	844
708	845
708	846
708	847
708	848
708	849
708	850
708	851
708	853
708	855
708	856
708	857
708	858
708	859
708	863
708	865
708	866
708	867
708	869
708	870
708	872
708	874
708	875
708	876
708	877
708	879
708	883
708	885
708	889
708	891
708	897
708	899
708	900
708	902
708	904
708	907
708	911
708	922
708	937
708	938
708	939
708	943
708	945
708	979
708	982
708	992
709	714
709	715
709	716
709	720
709	723
709	724
709	725
709	726
709	727
709	728
709	729
709	737
709	740
709	741
709	742
709	750
709	751
709	754
709	757
709	759
709	762
709	766
709	769
709	772
709	773
709	774
709	775
709	780
709	786
709	788
709	794
709	795
709	796
709	797
709	798
709	800
709	801
709	802
709	810
709	821
709	822
709	823
709	826
709	831
709	834
709	835
709	841
709	860
709	870
709	872
709	873
709	878
709	879
709	880
709	886
709	887
709	888
709	889
709	891
711	712
711	717
711	718
711	723
711	725
711	726
711	727
711	732
711	734
711	744
711	754
711	764
711	768
711	791
711	798
711	814
712	713
712	714
712	715
712	716
712	723
712	725
712	726
712	730
712	732
712	740
712	741
712	742
712	754
712	765
712	766
712	785
712	786
712	792
712	793
712	794
712	795
712	796
712	800
712	801
712	809
712	830
712	831
712	871
712	886
713	714
713	715
713	716
713	717
713	718
713	720
713	722
713	723
713	726
713	727
713	729
713	730
713	739
713	740
713	741
713	742
713	759
713	765
713	766
713	773
713	785
713	786
713	792
713	793
713	794
713	795
713	796
713	800
713	801
713	809
713	830
713	831
713	871
713	878
713	887
713	890
714	715
714	716
714	717
714	719
714	720
714	721
714	722
714	723
714	724
714	725
714	726
714	727
714	728
714	729
714	730
714	732
714	737
714	740
714	741
714	742
714	743
714	744
714	745
714	747
714	748
714	749
714	750
714	751
714	753
714	754
714	757
714	763
714	765
714	766
714	767
714	768
714	769
714	771
714	772
714	773
714	780
714	786
714	787
714	788
714	792
714	793
714	794
714	795
714	796
714	797
714	800
714	801
714	802
714	805
714	808
714	810
714	811
714	830
714	831
714	836
714	837
714	839
714	841
714	861
714	872
714	873
714	878
714	879
714	886
714	887
714	888
714	890
714	893
715	716
715	717
715	718
715	719
715	720
715	722
715	723
715	725
715	726
715	727
715	729
715	730
715	732
715	734
715	737
715	740
715	741
715	742
715	743
715	744
715	745
715	748
715	749
715	751
715	754
715	757
715	759
715	763
715	765
715	766
715	767
715	768
715	769
715	772
715	773
715	774
715	775
715	785
715	786
715	787
715	788
715	792
715	793
715	794
715	795
715	796
715	797
715	800
715	801
715	802
715	803
715	805
715	806
715	808
715	810
715	830
715	831
715	841
715	871
715	872
715	873
715	878
715	879
715	886
715	887
715	888
715	889
715	890
715	894
716	717
716	718
716	719
716	720
716	723
716	725
716	726
716	727
716	730
716	732
716	739
716	740
716	741
716	742
716	743
716	746
716	748
716	749
716	751
716	754
716	759
716	765
716	766
716	769
716	773
716	774
716	785
716	786
716	787
716	792
716	793
716	794
716	795
716	796
716	798
716	800
716	801
716	809
716	830
716	831
716	841
716	871
716	873
716	878
716	886
716	887
716	888
716	890
717	718
717	719
717	720
717	722
717	725
717	726
717	727
717	728
717	729
717	730
717	732
717	737
717	740
717	742
717	743
717	744
717	745
717	748
717	751
717	768
717	773
717	774
717	775
717	805
717	806
717	848
717	870
718	719
718	722
718	730
718	731
718	732
718	736
718	737
718	738
718	741
718	742
718	743
718	744
718	747
718	748
718	749
718	756
718	761
718	763
718	767
718	773
718	774
718	793
718	794
718	800
718	805
718	806
718	808
718	810
718	811
718	814
718	834
719	720
719	721
719	722
719	723
719	724
719	727
719	729
719	732
719	734
719	735
719	737
719	738
719	739
719	741
719	742
719	743
719	744
719	746
719	747
719	748
719	749
719	752
719	753
719	760
719	761
719	763
719	767
719	768
719	771
719	772
719	773
719	776
719	779
719	786
719	799
719	800
719	805
719	806
719	807
719	808
719	810
719	811
719	813
719	815
719	831
719	832
719	837
719	838
719	841
719	845
719	893
719	896
719	903
719	907
720	721
720	722
720	723
720	724
720	725
720	726
720	727
720	729
720	730
720	732
720	733
720	734
720	737
720	740
720	741
720	742
720	745
720	746
720	747
720	748
720	749
720	750
720	751
720	752
720	753
720	754
720	757
720	759
720	761
720	763
720	765
720	766
720	767
720	769
720	771
720	772
720	773
720	774
720	775
720	780
720	786
720	787
720	788
720	791
720	792
720	794
720	795
720	796
720	797
720	800
720	801
720	802
720	805
720	806
720	807
720	808
720	810
720	811
720	815
720	819
720	821
720	823
720	831
720	834
720	835
720	836
720	837
720	839
720	841
720	861
720	872
720	873
720	878
720	879
720	884
720	885
720	886
720	887
720	888
720	890
720	893
720	894
720	895
720	896
720	901
720	916
721	722
721	723
721	726
721	732
721	733
721	737
721	743
721	744
721	745
721	746
721	747
721	748
721	749
721	763
721	767
721	771
721	773
721	774
721	787
721	794
721	795
721	800
721	806
721	807
721	808
721	810
721	818
721	819
721	833
721	834
721	837
721	838
721	893
721	896
721	901
721	928
722	723
722	724
722	725
722	726
722	727
722	729
722	730
722	731
722	732
722	733
722	734
722	735
722	736
722	737
722	738
722	739
722	740
722	741
722	742
722	743
722	744
722	745
722	747
722	748
722	749
722	751
722	752
722	753
722	754
722	756
722	761
722	763
722	765
722	766
722	767
722	768
722	771
722	772
722	773
722	774
722	776
722	777
722	782
722	786
722	787
722	791
722	794
722	795
722	796
722	799
722	800
722	801
722	802
722	803
722	805
722	806
722	807
722	808
722	810
722	811
722	814
722	815
722	818
722	819
722	820
722	821
722	824
722	831
722	832
722	833
722	834
722	835
722	836
722	837
722	838
722	839
722	841
722	843
722	847
722	848
722	850
722	855
722	856
722	861
722	863
722	866
722	868
722	869
722	877
722	885
722	890
722	891
722	893
722	896
722	900
722	907
722	927
722	928
722	940
723	724
723	725
723	726
723	727
723	728
723	729
723	730
723	732
723	733
723	737
723	740
723	741
723	742
723	745
723	746
723	747
723	749
723	750
723	751
723	752
723	753
723	757
723	759
723	763
723	765
723	766
723	767
723	769
723	771
723	773
723	774
723	775
723	780
723	786
723	787
723	788
723	792
723	793
723	794
723	795
723	796
723	797
723	800
723	801
723	802
723	810
723	811
723	819
723	821
723	823
723	830
723	831
723	836
723	837
723	839
723	841
723	861
723	873
723	878
723	879
723	880
723	884
723	886
723	887
723	888
723	890
723	894
723	895
723	896
723	901
723	916
724	725
724	726
724	727
724	729
724	731
724	732
724	733
724	736
724	737
724	738
724	739
724	743
724	745
724	746
724	747
724	748
724	749
724	750
724	751
724	752
724	753
724	754
724	756
724	757
724	759
724	761
724	763
724	764
724	768
724	769
724	770
724	771
724	772
724	773
724	775
724	779
724	782
724	787
724	788
724	795
724	796
724	797
724	799
724	800
724	802
724	803
724	805
724	806
724	807
724	808
724	810
724	811
724	812
724	813
724	818
724	819
724	820
724	821
724	822
724	823
724	824
724	825
724	826
724	829
724	832
724	833
724	834
724	835
724	836
724	837
724	838
724	839
724	840
724	841
724	845
724	846
724	853
724	856
724	860
724	861
724	863
724	864
724	865
724	868
724	872
724	873
724	878
724	879
724	884
724	891
724	896
724	901
724	916
724	925
724	927
724	928
724	944
724	949
724	971
724	983
725	726
725	727
725	728
725	729
725	732
725	733
725	734
725	736
725	738
725	741
725	743
725	745
725	747
725	748
725	750
725	751
725	752
725	754
725	757
725	759
725	762
725	763
725	766
725	767
725	768
725	769
725	772
725	773
725	774
725	775
725	776
725	780
725	788
725	789
725	795
725	796
725	797
725	798
725	800
725	806
725	808
725	810
725	811
725	812
725	818
725	821
725	822
725	823
725	824
725	825
725	827
725	833
725	834
725	836
725	839
725	841
725	843
725	845
725	857
725	859
725	860
725	865
725	870
725	872
725	873
725	876
725	878
725	879
725	884
725	886
725	887
725	891
725	898
726	727
726	728
726	729
726	730
726	732
726	734
726	735
726	736
726	738
726	739
726	740
726	741
726	742
726	744
726	745
726	747
726	748
726	749
726	750
726	751
726	752
726	753
726	754
726	755
726	756
726	757
726	758
726	759
726	760
726	761
726	762
726	763
726	766
726	767
726	772
726	773
726	774
726	775
726	776
726	778
726	779
726	780
726	781
726	782
726	783
726	784
726	785
726	788
726	791
726	796
726	797
726	798
726	799
726	800
726	804
726	806
726	808
726	810
726	811
726	812
726	813
726	814
726	815
726	817
726	821
726	822
726	824
726	825
726	826
726	827
726	828
726	829
726	836
726	839
726	841
726	842
726	843
726	844
726	845
726	846
726	847
726	848
726	850
726	851
726	853
726	854
726	855
726	856
726	857
726	858
726	859
726	860
726	862
726	863
726	865
726	866
726	867
726	869
726	870
726	872
726	873
726	875
726	876
726	877
726	878
726	879
726	883
726	885
726	891
726	899
726	900
726	902
726	903
726	905
726	907
726	910
726	911
726	913
726	914
726	921
726	922
726	929
726	932
726	936
726	938
726	939
726	941
726	943
726	944
726	949
726	951
726	984
727	728
727	729
727	730
727	732
727	733
727	734
727	738
727	741
727	742
727	743
727	745
727	747
727	748
727	750
727	751
727	752
727	753
727	754
727	757
727	758
727	759
727	762
727	763
727	765
727	766
727	767
727	769
727	772
727	773
727	774
727	775
727	779
727	780
727	782
727	785
727	786
727	787
727	788
727	794
727	795
727	796
727	797
727	798
727	800
727	810
727	811
727	812
727	813
727	814
727	821
727	822
727	823
727	824
727	826
727	827
727	831
727	835
727	836
727	837
727	839
727	840
727	841
727	843
727	845
727	860
727	862
727	865
727	870
727	872
727	873
727	874
727	878
727	879
727	883
727	884
727	886
727	887
727	889
727	890
727	891
727	925
728	729
728	734
728	735
728	751
728	754
728	757
728	758
728	759
728	772
728	773
728	774
728	775
728	776
728	780
728	788
728	798
728	800
728	813
728	814
728	827
728	841
728	845
728	860
728	869
728	870
728	872
728	875
728	879
728	883
728	889
728	891
728	940
729	730
729	732
729	733
729	734
729	735
729	736
729	738
729	741
729	747
729	748
729	749
729	751
729	752
729	754
729	756
729	757
729	758
729	759
729	762
729	765
729	766
729	767
729	772
729	773
729	774
729	775
729	776
729	778
729	779
729	780
729	785
729	788
729	793
729	795
729	798
729	800
729	812
729	813
729	814
729	819
729	821
729	823
729	824
729	827
729	829
729	841
729	845
729	855
729	859
729	862
729	869
729	870
729	872
729	874
729	875
729	876
729	878
729	879
729	888
729	889
729	891
729	911
729	992
730	731
730	732
730	737
730	739
730	740
730	741
730	742
730	751
730	765
730	766
730	769
730	780
730	785
730	786
730	787
730	792
730	793
730	794
730	795
730	796
730	800
730	801
730	802
730	809
730	830
730	831
730	871
730	873
730	878
730	890
731	732
731	735
731	736
731	737
731	738
731	739
731	748
731	749
731	753
731	760
731	761
731	762
731	763
731	764
731	767
731	768
731	769
731	779
731	784
731	791
731	797
731	799
731	803
731	804
731	806
731	808
731	810
731	811
731	812
731	813
731	816
731	817
731	818
731	819
731	820
731	821
731	822
731	823
731	824
731	825
731	826
731	829
731	832
731	833
731	834
731	836
731	837
731	839
731	852
731	859
731	860
731	861
731	862
731	864
731	865
731	866
731	867
731	868
732	733
732	734
732	735
732	736
732	737
732	738
732	739
732	740
732	741
732	742
732	743
732	744
732	747
732	748
732	749
732	751
732	752
732	753
732	754
732	756
732	757
732	760
732	761
732	762
732	763
732	764
732	765
732	766
732	767
732	768
732	771
732	772
732	773
732	774
732	775
732	776
732	777
732	778
732	779
732	782
732	783
732	784
732	786
732	787
732	788
732	791
732	792
732	793
732	794
732	795
732	797
732	799
732	800
732	801
732	803
732	804
732	805
732	806
732	807
732	808
732	810
732	811
732	812
732	813
732	814
732	815
732	816
732	817
732	818
732	819
732	820
732	821
732	822
732	823
732	824
732	825
732	826
732	827
732	828
732	829
732	831
732	832
732	833
732	834
732	835
732	836
732	837
732	838
732	839
732	840
732	842
732	843
732	844
732	846
732	847
732	848
732	849
732	850
732	852
732	855
732	856
732	857
732	859
732	860
732	861
732	862
732	863
732	864
732	865
732	868
732	869
732	877
732	883
732	884
732	890
732	893
732	896
732	898
732	899
732	900
732	901
732	905
732	907
732	908
732	911
732	912
732	921
732	927
732	932
732	937
732	941
732	942
732	943
733	744
733	745
733	746
733	747
733	749
733	750
733	751
733	752
733	753
733	754
733	759
733	763
733	769
733	770
733	771
733	797
733	802
733	806
733	808
733	810
733	811
733	821
733	823
733	835
733	836
733	837
733	839
733	840
733	841
733	860
733	861
733	873
733	878
733	884
733	887
733	888
733	891
733	896
733	916
733	925
733	926
733	927
733	928
734	735
734	736
734	737
734	738
734	745
734	748
734	749
734	751
734	752
734	754
734	755
734	756
734	757
734	758
734	759
734	760
734	761
734	762
734	767
734	773
734	774
734	775
734	776
734	777
734	778
734	779
734	780
734	781
734	782
734	783
734	784
734	786
734	789
734	790
734	791
734	798
734	799
734	804
734	806
734	810
734	811
734	812
734	813
734	814
734	815
734	817
734	821
734	822
734	823
734	824
734	825
734	826
734	827
734	828
734	829
734	837
734	841
734	842
734	843
734	844
734	845
734	846
734	847
734	848
734	849
734	850
734	851
734	853
734	855
734	856
734	857
734	859
734	860
734	862
734	863
734	865
734	866
734	867
734	869
734	874
734	875
734	876
734	877
734	881
734	882
734	883
734	885
734	892
734	897
734	898
734	899
734	900
734	902
734	903
734	904
734	905
734	906
734	907
734	908
734	909
734	910
734	911
734	912
734	913
734	915
734	917
734	919
734	921
734	922
734	923
734	924
734	930
734	931
734	932
734	936
734	937
734	938
734	939
734	941
734	944
734	949
734	950
734	951
734	952
734	954
734	955
734	956
734	966
734	970
734	977
734	992
734	993
734	994
734	995
734	996
734	997
735	736
735	737
735	738
735	748
735	749
735	752
735	755
735	756
735	758
735	759
735	760
735	761
735	762
735	768
735	775
735	776
735	777
735	778
735	779
735	781
735	782
735	783
735	784
735	789
735	790
735	791
735	799
735	804
735	806
735	810
735	812
735	813
735	814
735	815
735	816
735	817
735	824
735	825
735	826
735	827
735	828
735	829
735	842
735	843
735	844
735	845
735	846
735	847
735	848
735	849
735	850
735	851
735	852
735	853
735	855
735	856
735	859
735	860
735	863
735	865
735	867
735	869
735	870
735	874
735	875
735	876
735	877
735	881
735	882
735	883
735	885
735	892
735	897
735	898
735	899
735	900
735	902
735	903
735	904
735	905
735	906
735	907
735	908
735	909
735	910
735	911
735	912
735	913
735	914
735	917
735	918
735	919
735	920
735	921
735	922
735	923
735	924
735	930
735	931
735	932
735	933
735	934
735	936
735	937
735	938
735	939
735	940
735	941
735	943
735	944
735	949
735	950
735	951
735	952
735	954
735	955
735	956
735	959
735	963
735	965
735	966
735	970
735	971
735	974
735	977
735	984
735	987
735	992
735	993
735	994
735	995
735	996
735	998
735	999
735	1000
735	1001
736	737
736	738
736	739
736	743
736	748
736	749
736	751
736	752
736	755
736	756
736	758
736	759
736	760
736	761
736	762
736	763
736	767
736	768
736	771
736	772
736	773
736	776
736	777
736	778
736	779
736	781
736	782
736	783
736	784
736	788
736	789
736	790
736	791
736	797
736	799
736	803
736	804
736	806
736	808
736	810
736	811
736	812
736	813
736	814
736	815
736	816
736	817
736	818
736	820
736	822
736	823
736	824
736	825
736	826
736	828
736	829
736	833
736	834
736	840
736	841
736	842
736	843
736	844
736	846
736	847
736	848
736	849
736	850
736	851
736	852
736	853
736	854
736	855
736	856
736	857
736	858
736	859
736	860
736	862
736	863
736	865
736	866
736	867
736	869
736	872
736	874
736	875
736	876
736	877
736	879
736	882
736	883
736	885
736	891
736	892
736	897
736	898
736	899
736	900
736	902
736	903
736	905
736	907
736	908
736	909
736	910
736	912
736	913
736	914
736	915
736	917
736	918
736	919
736	920
736	921
736	922
736	923
736	924
736	929
736	931
736	932
736	933
736	934
736	935
736	936
736	937
736	938
736	939
736	940
736	941
736	942
736	943
736	944
736	945
736	946
736	947
736	949
736	950
736	951
736	952
736	953
736	954
736	957
736	959
736	962
736	963
736	964
736	965
736	966
736	967
736	968
736	969
736	970
736	971
736	972
736	973
736	974
736	975
736	976
736	977
736	978
736	979
736	980
736	981
736	982
736	983
736	984
736	985
736	986
736	987
736	988
736	989
736	990
736	991
736	993
736	996
736	997
736	999
736	1001
736	1002
736	1003
736	1004
736	1005
736	1006
736	1008
736	1009
737	738
737	739
737	741
737	742
737	743
737	744
737	745
737	746
737	747
737	748
737	749
737	752
737	753
737	756
737	760
737	761
737	762
737	763
737	764
737	766
737	767
737	768
737	769
737	771
737	779
737	791
737	794
737	795
737	797
737	799
737	800
737	801
737	802
737	803
737	805
737	806
737	807
737	808
737	810
737	811
737	812
737	814
737	818
737	819
737	820
737	821
737	822
737	829
737	831
737	832
737	833
737	834
737	836
737	837
737	838
737	839
737	840
737	856
737	857
737	858
737	860
737	861
737	864
737	867
737	868
737	877
737	886
737	893
737	901
737	909
737	910
737	916
737	917
737	941
737	951
737	962
738	739
738	743
738	748
738	754
738	755
738	756
738	757
738	760
738	761
738	762
738	767
738	768
738	772
738	773
738	774
738	775
738	776
738	778
738	779
738	782
738	783
738	784
738	785
738	790
738	791
738	797
738	799
738	802
738	804
738	806
738	808
738	810
738	811
738	812
738	813
738	814
738	815
738	816
738	817
738	818
738	820
738	821
738	822
738	823
738	824
738	825
738	826
738	828
738	829
738	832
738	833
738	834
738	841
738	842
738	843
738	844
738	845
738	846
738	847
738	848
738	849
738	850
738	851
738	853
738	854
738	855
738	856
738	857
738	858
738	859
738	860
738	861
738	862
738	863
738	865
738	866
738	867
738	870
738	877
738	879
738	882
738	883
738	885
738	891
738	898
738	899
738	900
738	902
738	903
738	905
738	907
738	908
738	909
738	910
738	912
738	913
738	914
738	915
738	917
738	919
738	921
738	922
738	929
738	933
738	934
738	935
738	936
738	938
738	939
738	940
738	941
738	942
738	943
738	944
738	945
738	946
738	947
738	949
738	951
738	953
738	954
738	959
738	960
738	961
738	962
738	963
738	964
738	965
738	966
738	967
738	968
738	969
738	970
738	971
738	972
738	973
738	974
738	975
738	976
738	978
738	979
738	980
738	981
738	982
738	983
738	984
738	985
738	986
738	988
738	990
738	991
738	997
738	1002
738	1003
738	1008
738	1009
739	748
739	753
739	760
739	761
739	762
739	763
739	764
739	767
739	768
739	771
739	779
739	803
739	806
739	807
739	808
739	810
739	811
739	812
739	818
739	820
739	824
739	829
739	832
739	833
739	834
739	837
739	863
740	741
740	742
740	743
740	749
740	754
740	757
740	765
740	766
740	785
740	786
740	787
740	792
740	793
740	794
740	795
740	796
740	800
740	801
740	802
740	809
740	830
740	831
740	871
740	873
740	878
740	886
740	887
740	888
740	890
741	742
741	744
741	748
741	749
741	751
741	759
741	765
741	766
741	767
741	768
741	769
741	772
741	774
741	775
741	776
741	781
741	785
741	786
741	787
741	788
741	792
741	793
741	794
741	795
741	796
741	800
741	801
741	802
741	809
741	810
741	830
741	831
741	837
741	841
741	871
741	873
741	878
741	879
741	880
741	886
741	887
741	888
741	890
741	893
742	745
742	748
742	751
742	754
742	757
742	759
742	765
742	766
742	767
742	769
742	773
742	785
742	786
742	787
742	788
742	792
742	793
742	794
742	795
742	796
742	800
742	801
742	809
742	830
742	831
742	871
742	872
742	873
742	878
742	879
742	887
742	888
742	890
743	744
743	747
743	748
743	749
743	759
743	760
743	761
743	763
743	767
743	768
743	773
743	800
743	805
743	807
743	808
743	810
743	811
743	814
743	837
743	838
743	893
743	923
744	747
744	748
744	749
744	751
744	763
744	767
744	771
744	779
744	786
744	787
744	793
744	794
744	800
744	805
744	806
744	808
744	810
744	814
744	831
744	843
744	846
744	890
744	893
744	896
745	746
745	747
745	748
745	749
745	751
745	752
745	753
745	754
745	761
745	763
745	767
745	769
745	771
745	773
745	774
745	794
745	796
745	797
745	801
745	802
745	806
745	808
745	810
745	811
745	819
745	820
745	821
745	832
745	836
745	837
745	839
745	861
745	873
745	884
745	887
745	893
745	901
745	916
745	927
746	747
746	751
746	752
746	753
746	763
746	767
746	773
746	794
746	796
746	797
746	801
746	810
746	811
746	819
746	821
746	835
746	836
746	837
746	839
746	884
746	901
746	925
747	748
747	749
747	751
747	752
747	753
747	754
747	759
747	763
747	767
747	771
747	772
747	773
747	775
747	776
747	779
747	787
747	788
747	794
747	795
747	796
747	797
747	800
747	801
747	802
747	806
747	808
747	810
747	811
747	819
747	820
747	821
747	822
747	831
747	834
747	835
747	836
747	837
747	838
747	839
747	840
747	841
747	861
747	870
747	873
747	876
747	884
747	888
747	893
747	901
747	911
747	916
747	917
747	925
747	926
747	930
747	931
748	749
748	752
748	761
748	763
748	765
748	766
748	767
748	768
748	771
748	776
748	782
748	786
748	787
748	791
748	794
748	795
748	797
748	798
748	799
748	800
748	803
748	805
748	806
748	807
748	808
748	810
748	811
748	814
748	815
748	831
748	832
748	834
748	836
748	837
748	842
748	847
748	856
748	860
748	861
748	872
748	884
748	890
748	893
748	896
748	898
748	901
748	927
749	752
749	760
749	761
749	763
749	766
749	767
749	768
749	771
749	776
749	777
749	786
749	787
749	794
749	795
749	800
749	801
749	803
749	804
749	805
749	806
749	807
749	808
749	810
749	811
749	813
749	818
749	831
749	832
749	837
749	861
749	873
749	883
749	890
749	893
749	896
749	928
750	751
750	752
750	753
750	763
750	769
750	772
750	788
750	796
750	800
750	801
750	821
750	836
750	839
750	840
750	860
750	878
750	886
750	887
750	888
750	894
751	752
751	753
751	754
751	756
751	757
751	758
751	759
751	763
751	766
751	767
751	768
751	769
751	770
751	771
751	772
751	773
751	774
751	775
751	780
751	786
751	787
751	788
751	793
751	794
751	795
751	796
751	797
751	798
751	800
751	801
751	802
751	806
751	808
751	810
751	811
751	818
751	819
751	821
751	822
751	823
751	824
751	831
751	834
751	835
751	836
751	837
751	839
751	840
751	841
751	843
751	845
751	860
751	862
751	870
751	872
751	874
751	876
751	878
751	879
751	880
751	884
751	886
751	887
751	889
751	891
751	896
751	925
752	753
752	754
752	756
752	757
752	759
752	761
752	762
752	763
752	767
752	769
752	770
752	771
752	773
752	774
752	775
752	779
752	782
752	796
752	797
752	802
752	804
752	806
752	808
752	810
752	811
752	814
752	819
752	821
752	822
752	823
752	827
752	834
752	835
752	836
752	837
752	839
752	840
752	841
752	856
752	860
752	861
752	870
752	873
752	878
752	883
752	884
752	888
752	893
752	896
752	901
752	925
752	926
752	927
752	928
752	938
753	754
753	763
753	764
753	767
753	768
753	769
753	770
753	771
753	772
753	776
753	787
753	794
753	795
753	796
753	797
753	800
753	802
753	803
753	805
753	806
753	807
753	808
753	810
753	811
753	814
753	818
753	819
753	820
753	821
753	827
753	832
753	833
753	834
753	835
753	836
753	837
753	838
753	839
753	840
753	856
753	857
753	861
753	864
753	873
753	878
753	879
753	887
753	896
753	925
753	926
753	927
753	928
754	757
754	758
754	766
754	772
754	773
754	774
754	775
754	780
754	786
754	788
754	793
754	796
754	798
754	800
754	802
754	811
754	812
754	814
754	821
754	825
754	826
754	834
754	841
754	856
754	859
754	872
754	886
754	891
755	756
755	760
755	761
755	762
755	767
755	774
755	776
755	777
755	778
755	779
755	782
755	783
755	784
755	791
755	799
755	804
755	812
755	813
755	814
755	815
755	817
755	825
755	826
755	828
755	829
755	843
755	844
755	847
755	848
755	849
755	853
755	855
755	856
755	857
755	862
755	863
755	865
755	870
755	882
755	883
755	885
755	898
755	899
755	900
755	902
755	903
755	905
755	907
755	910
755	912
755	923
755	931
755	932
755	937
755	938
755	939
755	943
755	944
755	949
755	954
755	977
755	982
755	984
756	760
756	761
756	762
756	776
756	777
756	778
756	779
756	781
756	782
756	783
756	784
756	789
756	790
756	791
756	799
756	804
756	806
756	811
756	812
756	813
756	814
756	815
756	816
756	817
756	824
756	825
756	826
756	828
756	829
756	842
756	843
756	844
756	845
756	846
756	847
756	848
756	849
756	850
756	851
756	853
756	854
756	855
756	856
756	857
756	858
756	859
756	860
756	862
756	863
756	865
756	866
756	867
756	875
756	876
756	877
756	881
756	882
756	883
756	885
756	892
756	897
756	898
756	899
756	900
756	902
756	903
756	904
756	905
756	906
756	907
756	908
756	909
756	910
756	911
756	912
756	913
756	914
756	915
756	916
756	917
756	918
756	919
756	920
756	921
756	922
756	923
756	924
756	930
756	932
756	934
756	936
756	937
756	938
756	939
756	940
756	941
756	942
756	943
756	944
756	945
756	949
756	950
756	951
756	952
756	953
756	954
756	955
756	956
756	957
756	959
756	962
756	963
756	965
756	966
756	967
756	969
756	970
756	971
756	972
756	973
756	974
756	975
756	976
756	977
756	978
756	984
756	985
756	987
756	991
756	994
756	995
756	996
756	997
756	998
756	999
756	1000
756	1001
756	1002
756	1003
756	1004
756	1005
757	758
757	759
757	766
757	769
757	772
757	773
757	774
757	775
757	779
757	780
757	785
757	786
757	788
757	795
757	796
757	798
757	800
757	814
757	821
757	822
757	823
757	826
757	827
757	841
757	844
757	857
757	869
757	870
757	872
757	873
757	878
757	879
757	886
757	887
757	888
757	889
757	891
757	992
758	759
758	772
758	773
758	774
758	775
758	776
758	779
758	780
758	784
758	788
758	798
758	812
758	813
758	814
758	827
758	845
758	869
758	870
758	872
758	874
758	911
758	993
759	772
759	773
759	774
759	775
759	776
759	779
759	780
759	788
759	798
759	800
759	813
759	814
759	827
759	841
759	845
759	867
759	869
759	870
759	872
759	874
759	875
759	876
759	879
759	889
759	891
759	898
759	911
759	936
759	943
759	992
760	761
760	762
760	776
760	777
760	778
760	779
760	782
760	783
760	784
760	790
760	791
760	797
760	799
760	804
760	806
760	808
760	810
760	811
760	812
760	813
760	814
760	815
760	816
760	817
760	826
760	828
760	829
760	834
760	837
760	842
760	843
760	846
760	847
760	848
760	849
760	850
760	851
760	852
760	853
760	855
760	856
760	857
760	859
760	862
760	863
760	866
760	877
760	879
760	882
760	883
760	885
760	897
760	899
760	900
760	902
760	903
760	905
760	907
760	908
760	909
760	910
760	912
760	913
760	914
760	915
760	919
760	923
760	932
760	937
760	939
760	940
760	944
760	950
760	952
760	953
760	954
760	955
760	956
760	957
760	962
760	964
760	970
760	977
760	987
760	996
760	1003
761	762
761	763
761	767
761	768
761	771
761	776
761	777
761	778
761	779
761	781
761	782
761	783
761	784
761	785
761	789
761	790
761	791
761	797
761	799
761	804
761	806
761	808
761	810
761	811
761	812
761	813
761	814
761	815
761	816
761	817
761	818
761	825
761	826
761	828
761	829
761	834
761	837
761	839
761	840
761	842
761	843
761	844
761	846
761	847
761	848
761	849
761	850
761	851
761	852
761	853
761	854
761	855
761	856
761	857
761	858
761	859
761	861
761	862
761	863
761	865
761	866
761	867
761	869
761	872
761	875
761	876
761	877
761	879
761	882
761	883
761	885
761	892
761	897
761	898
761	899
761	900
761	902
761	903
761	904
761	905
761	906
761	907
761	908
761	909
761	910
761	912
761	913
761	914
761	915
761	917
761	919
761	921
761	922
761	923
761	924
761	929
761	932
761	933
761	934
761	936
761	937
761	938
761	939
761	940
761	941
761	944
761	945
761	947
761	949
761	950
761	951
761	952
761	954
761	955
761	956
761	957
761	959
761	962
761	963
761	964
761	965
761	966
761	968
761	969
761	970
761	971
761	972
761	974
761	975
761	976
761	977
761	982
761	983
761	984
761	986
761	987
761	988
761	990
761	994
761	996
761	997
761	999
761	1001
761	1002
761	1003
761	1005
762	763
762	772
762	773
762	776
762	777
762	778
762	779
762	782
762	783
762	788
762	791
762	797
762	799
762	804
762	806
762	811
762	812
762	813
762	814
762	815
762	825
762	826
762	827
762	828
762	829
762	842
762	843
762	844
762	847
762	848
762	850
762	853
762	855
762	856
762	857
762	859
762	863
762	865
762	866
762	867
762	869
762	883
762	885
762	892
762	897
762	899
762	900
762	902
762	912
762	914
762	917
762	918
762	920
762	922
762	929
762	930
762	933
762	934
762	935
762	936
762	938
762	940
762	942
762	943
762	944
762	945
762	946
762	947
762	948
762	951
762	954
762	955
762	959
762	961
762	962
762	963
762	966
762	967
762	968
762	970
762	971
762	975
762	976
762	977
762	982
762	983
762	984
762	985
762	986
762	990
762	991
762	994
762	999
762	1002
762	1003
762	1008
762	1009
763	767
763	768
763	771
763	787
763	791
763	794
763	795
763	796
763	797
763	800
763	801
763	802
763	803
763	805
763	806
763	807
763	808
763	810
763	811
763	812
763	818
763	819
763	820
763	821
763	822
763	823
763	831
763	832
763	833
763	834
763	835
763	836
763	837
763	838
763	839
763	840
763	860
763	861
763	868
763	873
763	878
763	884
763	888
763	893
763	896
763	901
763	916
763	917
763	926
763	927
763	962
764	768
764	795
764	803
764	806
764	808
764	810
764	811
764	818
764	820
764	822
764	823
764	833
764	834
764	837
765	766
765	786
765	787
765	792
765	793
765	794
765	795
765	796
765	800
765	801
765	802
765	810
765	830
765	831
765	873
765	887
765	888
765	890
766	767
766	786
766	787
766	788
766	792
766	793
766	794
766	795
766	796
766	800
766	801
766	802
766	803
766	805
766	807
766	808
766	810
766	830
766	831
766	841
766	873
766	878
766	886
766	887
766	888
766	890
767	768
767	782
767	786
767	787
767	794
767	795
767	796
767	800
767	802
767	803
767	805
767	806
767	807
767	808
767	810
767	811
767	818
767	820
767	821
767	823
767	825
767	831
767	832
767	833
767	834
767	836
767	837
767	840
767	847
767	858
767	860
767	890
767	893
767	901
768	771
768	777
768	779
768	791
768	795
768	797
768	799
768	800
768	803
768	804
768	805
768	806
768	807
768	808
768	810
768	811
768	818
768	819
768	820
768	821
768	823
768	826
768	831
768	832
768	833
768	834
768	836
768	837
768	838
768	839
768	847
768	856
768	859
768	860
768	861
768	862
768	863
768	864
768	868
768	893
768	896
768	936
769	771
769	772
769	774
769	787
769	788
769	794
769	795
769	796
769	797
769	800
769	801
769	802
769	806
769	808
769	810
769	821
769	835
769	839
769	840
769	860
769	873
769	878
769	879
769	880
769	884
769	886
769	887
769	888
769	889
770	771
770	822
770	835
770	836
770	884
770	896
770	925
770	926
770	927
770	928
771	795
771	797
771	800
771	802
771	806
771	808
771	810
771	811
771	818
771	819
771	820
771	821
771	822
771	831
771	833
771	834
771	835
771	836
771	837
771	839
771	840
771	861
771	864
771	873
771	878
771	884
771	893
771	896
771	901
771	925
771	926
771	927
771	928
772	773
772	774
772	780
772	788
772	795
772	796
772	797
772	798
772	800
772	802
772	808
772	812
772	821
772	822
772	823
772	824
772	825
772	826
772	835
772	841
772	857
772	860
772	862
772	865
772	870
772	872
772	873
772	878
772	879
772	886
772	887
772	888
772	889
773	774
773	775
773	776
773	779
773	780
773	788
773	791
773	795
773	796
773	797
773	798
773	800
773	802
773	806
773	810
773	811
773	812
773	814
773	821
773	823
773	824
773	826
773	827
773	841
773	843
773	845
773	855
773	857
773	859
773	860
773	862
773	863
773	867
773	869
773	870
773	872
773	873
773	874
773	878
773	879
773	885
773	886
773	887
773	891
773	946
774	775
774	780
774	788
774	794
774	795
774	797
774	798
774	800
774	802
774	812
774	814
774	825
774	826
774	827
774	841
774	845
774	855
774	857
774	862
774	863
774	869
774	870
774	872
774	874
774	879
774	886
774	887
774	889
774	891
775	776
775	780
775	782
775	788
775	798
775	812
775	827
775	841
775	843
775	845
775	863
775	869
775	870
775	872
775	874
775	875
775	876
775	877
775	879
775	889
775	914
775	931
775	992
776	777
776	778
776	779
776	781
776	782
776	783
776	784
776	789
776	790
776	791
776	798
776	799
776	804
776	812
776	813
776	814
776	815
776	817
776	824
776	826
776	827
776	828
776	829
776	842
776	843
776	844
776	845
776	846
776	847
776	848
776	849
776	850
776	851
776	852
776	853
776	856
776	863
776	865
776	867
776	869
776	874
776	875
776	876
776	877
776	881
776	882
776	883
776	885
776	892
776	897
776	898
776	899
776	900
776	902
776	904
776	905
776	906
776	907
776	908
776	909
776	910
776	911
776	912
776	913
776	918
776	919
776	920
776	921
776	922
776	923
776	924
776	930
776	931
776	932
776	936
776	937
776	939
776	940
776	944
776	945
776	950
776	952
776	954
776	955
776	956
776	963
776	977
776	987
776	992
776	993
776	994
776	995
776	996
776	998
776	999
776	1000
777	778
777	779
777	781
777	782
777	783
777	784
777	789
777	790
777	791
777	799
777	804
777	813
777	814
777	815
777	817
777	828
777	829
777	842
777	846
777	847
777	848
777	849
777	850
777	851
777	853
777	856
777	876
777	881
777	882
777	883
777	885
777	892
777	897
777	898
777	899
777	900
777	902
777	905
777	907
777	908
777	910
777	911
777	912
777	913
777	919
777	921
777	922
777	932
777	937
777	939
777	944
777	948
777	950
777	952
777	955
778	779
778	781
778	782
778	783
778	784
778	789
778	790
778	791
778	799
778	804
778	812
778	813
778	814
778	815
778	817
778	828
778	829
778	842
778	843
778	844
778	845
778	846
778	847
778	848
778	849
778	850
778	851
778	853
778	855
778	863
778	865
778	866
778	867
778	876
778	882
778	883
778	885
778	892
778	897
778	898
778	899
778	900
778	902
778	903
778	904
778	905
778	906
778	907
778	908
778	909
778	910
778	911
778	912
778	913
778	919
778	921
778	922
778	923
778	924
778	931
778	933
778	937
778	938
778	939
778	940
778	944
778	950
778	952
778	954
778	955
778	971
778	974
778	977
778	988
778	995
778	996
779	781
779	782
779	783
779	784
779	790
779	791
779	797
779	798
779	799
779	804
779	805
779	806
779	810
779	811
779	812
779	813
779	814
779	815
779	816
779	817
779	822
779	824
779	825
779	826
779	828
779	829
779	834
779	837
779	842
779	843
779	844
779	846
779	847
779	848
779	849
779	850
779	851
779	853
779	854
779	855
779	856
779	857
779	858
779	859
779	860
779	862
779	863
779	865
779	867
779	869
779	870
779	875
779	876
779	877
779	882
779	883
779	885
779	892
779	897
779	898
779	899
779	900
779	902
779	903
779	905
779	907
779	908
779	909
779	910
779	911
779	912
779	913
779	914
779	917
779	919
779	921
779	922
779	923
779	924
779	929
779	930
779	932
779	934
779	936
779	937
779	938
779	939
779	940
779	941
779	943
779	944
779	947
779	949
779	950
779	951
779	952
779	954
779	955
779	956
779	963
779	970
779	971
779	973
779	974
779	975
779	976
779	977
779	988
779	996
779	997
780	788
780	792
780	794
780	795
780	798
780	800
780	801
780	826
780	827
780	841
780	843
780	845
780	859
780	860
780	869
780	870
780	872
780	873
780	879
780	889
781	782
781	783
781	784
781	789
781	790
781	804
781	813
781	814
781	815
781	817
781	827
781	828
781	842
781	846
781	847
781	848
781	849
781	850
781	869
781	874
781	875
781	876
781	877
781	881
781	882
781	883
781	885
781	897
781	898
781	899
781	900
781	902
781	904
781	905
781	906
781	907
781	908
781	911
781	912
781	918
781	919
781	920
781	923
781	924
781	930
781	931
781	932
781	937
781	950
781	955
781	956
781	977
781	992
781	993
781	994
781	995
781	996
781	998
781	999
781	1000
782	783
782	784
782	789
782	790
782	791
782	799
782	804
782	806
782	812
782	813
782	814
782	815
782	816
782	817
782	822
782	825
782	826
782	827
782	828
782	829
782	842
782	843
782	844
782	845
782	846
782	847
782	848
782	849
782	850
782	851
782	853
782	855
782	856
782	857
782	859
782	861
782	863
782	865
782	866
782	867
782	869
782	874
782	875
782	876
782	877
782	881
782	882
782	883
782	885
782	892
782	897
782	898
782	899
782	900
782	902
782	904
782	905
782	906
782	907
782	908
782	909
782	910
782	911
782	912
782	913
782	914
782	915
782	917
782	918
782	919
782	920
782	921
782	922
782	923
782	924
782	930
782	931
782	932
782	936
782	937
782	938
782	939
782	940
782	941
782	944
782	945
782	947
782	949
782	950
782	951
782	952
782	954
782	955
782	956
782	966
782	968
782	970
782	971
782	974
782	977
782	979
782	987
782	992
782	993
782	994
782	995
782	996
782	997
782	998
782	999
782	1000
782	1001
783	784
783	789
783	790
783	799
783	804
783	813
783	814
783	815
783	816
783	817
783	828
783	829
783	842
783	844
783	846
783	847
783	848
783	849
783	850
783	851
783	853
783	855
783	856
783	867
783	869
783	874
783	875
783	876
783	881
783	882
783	883
783	885
783	892
783	897
783	898
783	899
783	900
783	902
783	904
783	905
783	906
783	907
783	908
783	909
783	911
783	912
783	913
783	915
783	918
783	919
783	920
783	921
783	922
783	923
783	924
783	930
783	931
783	932
783	936
783	937
783	939
783	940
783	944
783	950
783	952
783	954
783	955
783	956
783	977
783	991
783	992
783	993
783	994
783	995
783	996
783	998
783	999
783	1000
783	1002
784	789
784	790
784	791
784	799
784	804
784	806
784	811
784	812
784	813
784	814
784	815
784	816
784	817
784	828
784	829
784	842
784	843
784	846
784	847
784	848
784	849
784	850
784	851
784	852
784	853
784	854
784	855
784	856
784	857
784	859
784	863
784	866
784	867
784	869
784	874
784	877
784	882
784	883
784	885
784	892
784	897
784	898
784	899
784	900
784	902
784	904
784	905
784	906
784	907
784	908
784	909
784	910
784	911
784	912
784	913
784	914
784	915
784	919
784	921
784	922
784	923
784	924
784	932
784	936
784	937
784	938
784	939
784	940
784	941
784	944
784	945
784	949
784	950
784	951
784	952
784	954
784	956
784	957
784	962
784	966
784	967
784	968
784	970
784	971
784	972
784	974
784	976
784	977
784	979
784	985
784	987
784	988
784	989
784	996
784	997
784	1000
784	1001
784	1005
785	792
785	793
785	794
785	809
785	830
785	871
786	787
786	788
786	792
786	793
786	794
786	795
786	796
786	800
786	801
786	802
786	809
786	810
786	830
786	831
786	841
786	873
786	878
786	886
786	887
786	888
786	890
786	894
786	895
787	788
787	792
787	793
787	794
787	795
787	796
787	800
787	801
787	802
787	805
787	806
787	808
787	810
787	830
787	831
787	837
787	873
787	878
787	879
787	886
787	887
787	888
787	889
787	890
787	893
787	895
788	794
788	795
788	796
788	797
788	798
788	800
788	801
788	802
788	810
788	811
788	812
788	814
788	820
788	821
788	822
788	823
788	824
788	826
788	827
788	831
788	839
788	841
788	843
788	845
788	860
788	862
788	863
788	865
788	869
788	870
788	872
788	873
788	878
788	879
788	880
788	883
788	884
788	886
788	887
788	888
788	889
788	891
789	790
789	804
789	813
789	815
789	826
789	828
789	829
789	842
789	846
789	847
789	848
789	849
789	850
789	853
789	874
789	875
789	876
789	881
789	882
789	885
789	892
789	897
789	898
789	899
789	900
789	902
789	904
789	905
789	906
789	908
789	911
789	912
789	918
789	919
789	920
789	923
789	924
789	930
789	931
789	932
789	937
789	939
789	950
789	952
789	955
789	956
789	977
789	992
789	993
789	994
789	995
789	996
789	998
789	999
789	1000
790	791
790	799
790	804
790	812
790	813
790	814
790	815
790	816
790	817
790	826
790	828
790	829
790	842
790	846
790	847
790	848
790	849
790	850
790	851
790	853
790	855
790	856
790	876
790	877
790	881
790	882
790	883
790	885
790	892
790	897
790	898
790	899
790	900
790	902
790	904
790	905
790	906
790	907
790	908
790	909
790	910
790	911
790	912
790	913
790	915
790	919
790	921
790	923
790	924
790	931
790	932
790	936
790	937
790	938
790	939
790	941
790	944
790	950
790	952
790	954
790	955
790	956
790	971
790	972
790	977
790	996
790	998
790	1000
791	799
791	804
791	806
791	808
791	810
791	811
791	812
791	813
791	814
791	815
791	816
791	817
791	824
791	825
791	826
791	828
791	829
791	834
791	842
791	843
791	846
791	847
791	848
791	850
791	851
791	852
791	853
791	854
791	855
791	856
791	857
791	859
791	860
791	863
791	865
791	866
791	867
791	872
791	877
791	882
791	885
791	892
791	899
791	900
791	902
791	905
791	907
791	908
791	909
791	910
791	912
791	913
791	914
791	915
791	917
791	921
791	922
791	923
791	929
791	932
791	933
791	934
791	935
791	936
791	937
791	939
791	940
791	941
791	942
791	943
791	944
791	945
791	946
791	947
791	949
791	950
791	951
791	953
791	954
791	955
791	959
791	962
791	963
791	964
791	965
791	966
791	968
791	970
791	971
791	972
791	974
791	975
791	976
791	978
791	980
791	982
791	983
791	984
791	985
791	987
791	990
791	1001
791	1002
791	1003
791	1004
791	1005
791	1006
791	1010
792	793
792	794
792	795
792	796
792	800
792	801
792	830
792	831
792	871
792	873
792	887
792	888
792	890
792	894
793	794
793	795
793	796
793	800
793	801
793	802
793	809
793	830
793	831
793	871
793	873
793	886
793	887
793	888
793	890
794	795
794	796
794	797
794	800
794	801
794	802
794	808
794	810
794	830
794	831
794	836
794	837
794	871
794	873
794	878
794	879
794	880
794	884
794	886
794	887
794	888
794	890
794	894
794	895
795	796
795	797
795	800
795	801
795	802
795	805
795	806
795	808
795	810
795	811
795	820
795	831
795	837
795	839
795	861
795	870
795	873
795	878
795	879
795	887
795	888
795	890
795	893
795	894
795	895
795	896
796	797
796	800
796	801
796	802
796	830
796	831
796	873
796	878
796	879
796	880
796	884
796	886
796	887
796	888
796	889
796	890
796	894
796	895
797	799
797	800
797	802
797	806
797	807
797	808
797	810
797	811
797	812
797	818
797	819
797	820
797	821
797	822
797	823
797	824
797	825
797	826
797	829
797	832
797	833
797	834
797	835
797	836
797	837
797	838
797	839
797	840
797	855
797	860
797	861
797	864
797	865
797	873
797	884
797	889
797	901
797	925
797	928
798	800
798	827
798	841
798	845
798	859
798	869
798	870
798	872
798	874
798	875
798	876
798	879
798	891
798	911
799	804
799	805
799	806
799	808
799	810
799	811
799	812
799	813
799	814
799	815
799	816
799	817
799	818
799	824
799	825
799	826
799	828
799	829
799	834
799	842
799	843
799	844
799	846
799	847
799	848
799	849
799	850
799	851
799	852
799	853
799	854
799	855
799	856
799	857
799	858
799	859
799	863
799	864
799	865
799	866
799	867
799	876
799	877
799	882
799	883
799	885
799	892
799	897
799	898
799	899
799	900
799	902
799	904
799	905
799	907
799	908
799	909
799	910
799	911
799	912
799	913
799	914
799	915
799	917
799	919
799	920
799	921
799	922
799	923
799	929
799	932
799	933
799	934
799	935
799	936
799	937
799	938
799	939
799	940
799	941
799	942
799	943
799	944
799	945
799	947
799	949
799	950
799	951
799	952
799	953
799	954
799	955
799	956
799	957
799	959
799	962
799	963
799	964
799	965
799	966
799	967
799	968
799	969
799	970
799	971
799	972
799	973
799	974
799	976
799	977
799	978
799	979
799	980
799	981
799	982
799	983
799	984
799	985
799	986
799	987
799	988
799	989
799	991
799	992
799	995
799	996
799	997
799	1001
799	1002
799	1003
799	1004
799	1005
799	1006
800	801
800	802
800	805
800	808
800	810
800	831
800	837
800	839
800	841
800	873
800	878
800	879
800	884
800	886
800	887
800	888
800	889
800	890
800	894
800	895
800	896
801	802
801	810
801	811
801	830
801	831
801	873
801	878
801	879
801	880
801	886
801	887
801	888
801	890
801	893
801	894
801	895
802	805
802	808
802	810
802	811
802	819
802	831
802	832
802	836
802	837
802	839
802	841
802	865
802	873
802	878
802	879
802	886
802	887
802	888
802	889
802	890
802	894
802	895
802	896
803	805
803	806
803	807
803	808
803	810
803	811
803	818
803	819
803	820
803	832
803	833
803	834
803	838
803	839
803	864
803	868
803	893
804	811
804	812
804	813
804	814
804	815
804	817
804	826
804	828
804	829
804	842
804	843
804	844
804	845
804	846
804	847
804	848
804	849
804	850
804	851
804	853
804	855
804	856
804	865
804	867
804	876
804	877
804	881
804	882
804	883
804	885
804	892
804	897
804	898
804	899
804	900
804	902
804	903
804	905
804	906
804	907
804	908
804	909
804	910
804	911
804	912
804	913
804	914
804	919
804	921
804	922
804	923
804	924
804	932
804	937
804	938
804	939
804	941
804	944
804	949
804	950
804	951
804	952
804	954
804	955
804	956
804	957
804	962
804	969
804	971
804	972
804	977
804	987
804	993
804	996
804	997
804	1000
805	806
805	807
805	808
805	810
805	811
805	818
805	820
805	831
805	832
805	833
805	834
805	836
805	837
805	861
805	864
805	893
806	807
806	808
806	810
806	811
806	812
806	813
806	814
806	817
806	818
806	819
806	820
806	821
806	822
806	823
806	824
806	826
806	829
806	832
806	833
806	834
806	835
806	836
806	837
806	838
806	839
806	840
806	843
806	845
806	848
806	849
806	852
806	853
806	855
806	856
806	857
806	858
806	859
806	860
806	861
806	862
806	863
806	864
806	865
806	866
806	867
806	877
806	893
806	896
806	900
806	905
806	910
806	917
806	922
806	934
806	939
806	941
806	949
807	808
807	810
807	811
807	818
807	819
807	820
807	821
807	832
807	834
807	836
807	837
807	838
807	839
807	861
807	864
807	893
807	927
807	928
808	810
808	811
808	818
808	819
808	820
808	821
808	822
808	824
808	825
808	826
808	831
808	832
808	833
808	834
808	836
808	837
808	838
808	839
808	840
808	843
808	853
808	855
808	856
808	859
808	860
808	861
808	863
808	864
808	868
808	874
808	884
808	890
808	891
808	893
808	896
808	899
808	907
808	908
808	916
808	928
808	957
809	830
809	871
810	811
810	812
810	818
810	819
810	820
810	821
810	823
810	824
810	825
810	826
810	831
810	832
810	833
810	834
810	835
810	836
810	837
810	838
810	839
810	847
810	848
810	851
810	853
810	856
810	860
810	861
810	864
810	868
810	882
810	893
810	900
810	901
810	907
810	909
810	921
810	927
810	938
810	939
811	812
811	813
811	814
811	815
811	817
811	818
811	819
811	820
811	821
811	822
811	823
811	824
811	825
811	826
811	828
811	832
811	833
811	834
811	836
811	837
811	838
811	839
811	840
811	843
811	851
811	853
811	856
811	857
811	858
811	859
811	860
811	861
811	862
811	863
811	864
811	866
811	867
811	872
811	878
811	896
811	901
811	909
811	913
811	928
811	943
812	813
812	814
812	815
812	817
812	819
812	821
812	822
812	823
812	824
812	825
812	826
812	828
812	829
812	833
812	834
812	839
812	841
812	842
812	843
812	844
812	847
812	848
812	850
812	851
812	853
812	854
812	855
812	856
812	857
812	858
812	859
812	860
812	861
812	862
812	863
812	865
812	866
812	867
812	869
812	870
812	876
812	882
812	883
812	884
812	885
812	897
812	899
812	900
812	902
812	903
812	905
812	907
812	910
812	913
812	914
812	915
812	917
812	921
812	922
812	933
812	934
812	935
812	936
812	937
812	938
812	939
812	940
812	941
812	942
812	943
812	944
812	945
812	946
812	947
812	949
812	951
812	954
812	957
812	966
812	967
812	968
812	970
812	971
812	972
812	974
812	975
812	976
812	978
812	980
812	981
812	982
812	984
812	988
812	989
812	990
812	991
813	814
813	815
813	816
813	817
813	823
813	824
813	825
813	826
813	828
813	829
813	842
813	843
813	844
813	846
813	847
813	848
813	849
813	850
813	851
813	852
813	853
813	855
813	856
813	857
813	859
813	860
813	862
813	863
813	865
813	866
813	867
813	876
813	877
813	882
813	883
813	885
813	892
813	897
813	898
813	899
813	900
813	902
813	903
813	905
813	907
813	908
813	909
813	910
813	912
813	913
813	914
813	919
813	921
813	922
813	924
813	932
813	936
813	937
813	938
813	939
813	943
813	944
813	949
813	954
813	963
813	972
813	991
814	815
814	817
814	822
814	824
814	825
814	826
814	827
814	828
814	829
814	841
814	842
814	843
814	844
814	846
814	847
814	848
814	849
814	850
814	851
814	853
814	855
814	856
814	857
814	858
814	859
814	862
814	863
814	865
814	870
814	876
814	877
814	878
814	882
814	883
814	885
814	897
814	898
814	899
814	900
814	902
814	903
814	904
814	905
814	907
814	908
814	909
814	910
814	912
814	913
814	914
814	917
814	919
814	921
814	922
814	924
814	929
814	932
814	936
814	937
814	938
814	939
814	940
814	941
814	943
814	944
814	945
814	949
814	950
814	951
814	954
814	955
814	956
814	962
814	964
814	970
814	972
814	974
814	982
814	984
814	985
814	995
814	1005
814	1008
815	816
815	817
815	825
815	826
815	828
815	829
815	842
815	843
815	844
815	846
815	847
815	848
815	849
815	850
815	851
815	853
815	855
815	856
815	857
815	859
815	860
815	863
815	865
815	866
815	867
815	869
815	876
815	877
815	881
815	882
815	883
815	885
815	892
815	897
815	898
815	899
815	900
815	902
815	903
815	904
815	905
815	906
815	907
815	908
815	909
815	910
815	911
815	912
815	913
815	914
815	915
815	918
815	919
815	920
815	921
815	922
815	923
815	924
815	930
815	931
815	932
815	934
815	936
815	937
815	938
815	939
815	940
815	941
815	944
815	945
815	949
815	950
815	951
815	952
815	954
815	955
815	956
815	957
815	963
815	966
815	971
815	972
815	973
815	977
815	985
815	987
815	992
815	994
815	995
815	996
815	998
815	999
815	1000
815	1005
816	817
816	828
816	846
816	848
816	849
816	850
816	852
816	853
816	856
816	876
816	877
816	882
816	885
816	897
816	898
816	899
816	900
816	905
816	907
816	908
816	909
816	912
816	914
816	919
816	923
816	931
816	932
816	937
816	941
816	952
816	954
816	956
816	996
817	825
817	826
817	828
817	834
817	841
817	842
817	843
817	844
817	846
817	848
817	849
817	850
817	851
817	852
817	853
817	854
817	855
817	856
817	857
817	858
817	859
817	862
817	863
817	865
817	866
817	867
817	881
817	882
817	883
817	885
817	892
817	897
817	899
817	900
817	902
817	905
817	907
817	908
817	909
817	910
817	912
817	913
817	914
817	915
817	917
817	919
817	921
817	922
817	923
817	929
817	932
817	933
817	934
817	935
817	936
817	937
817	938
817	939
817	940
817	941
817	942
817	943
817	944
817	945
817	947
817	949
817	950
817	951
817	952
817	953
817	954
817	957
817	959
817	962
817	963
817	964
817	965
817	966
817	967
817	968
817	969
817	970
817	971
817	972
817	973
817	974
817	975
817	976
817	977
817	978
817	979
817	980
817	981
817	984
817	985
817	986
817	987
817	988
817	989
817	997
817	1001
817	1002
817	1003
817	1004
817	1005
817	1006
817	1009
818	819
818	820
818	821
818	822
818	823
818	826
818	832
818	833
818	834
818	836
818	837
818	838
818	839
818	853
818	855
818	857
818	860
818	861
818	864
818	868
818	896
819	820
819	821
819	822
819	823
819	832
819	833
819	834
819	836
819	837
819	838
819	839
819	840
819	861
819	864
819	896
819	901
819	957
819	958
820	821
820	822
820	823
820	824
820	826
820	832
820	833
820	834
820	836
820	837
820	838
820	839
820	840
820	843
820	855
820	856
820	860
820	861
820	863
820	864
820	868
820	896
820	916
820	941
820	944
820	958
820	959
820	960
821	822
821	823
821	824
821	826
821	833
821	834
821	835
821	836
821	837
821	839
821	840
821	841
821	846
821	860
821	861
821	862
821	864
821	865
821	878
821	879
821	884
822	823
822	824
822	825
822	826
822	829
822	832
822	833
822	834
822	835
822	836
822	839
822	840
822	841
822	843
822	860
822	861
822	865
822	878
822	884
822	922
822	940
822	951
822	976
822	983
823	824
823	826
823	832
823	833
823	834
823	835
823	839
823	841
823	843
823	857
823	859
823	860
823	861
823	865
823	884
823	916
823	926
823	927
824	825
824	826
824	832
824	834
824	835
824	839
824	841
824	843
824	844
824	846
824	856
824	857
824	859
824	860
824	862
824	863
824	865
824	867
824	884
824	903
824	971
824	972
824	974
825	826
825	828
825	829
825	843
825	844
825	846
825	849
825	850
825	851
825	853
825	855
825	856
825	857
825	858
825	859
825	860
825	862
825	863
825	865
825	866
825	867
825	870
825	882
825	885
825	899
825	900
825	903
825	907
825	908
825	910
825	913
825	914
825	915
825	917
825	922
825	929
825	933
825	934
825	935
825	936
825	939
825	940
825	941
825	943
825	944
825	945
825	947
825	949
825	954
825	957
825	961
825	965
825	966
825	967
825	968
825	970
825	972
825	976
825	981
825	982
825	983
825	987
826	828
826	829
826	833
826	834
826	835
826	837
826	839
826	841
826	842
826	843
826	844
826	846
826	847
826	848
826	850
826	851
826	853
826	855
826	856
826	857
826	858
826	859
826	860
826	861
826	862
826	863
826	865
826	866
826	867
826	883
826	885
826	891
826	897
826	899
826	900
826	902
826	903
826	905
826	910
826	913
826	917
826	922
826	933
826	934
826	936
826	937
826	938
826	940
826	943
826	944
826	947
826	948
826	949
826	950
826	951
826	954
826	959
826	963
826	966
826	967
826	968
826	969
826	970
826	973
826	974
826	975
826	982
826	984
826	986
827	829
827	841
827	842
827	845
827	846
827	857
827	858
827	869
827	870
827	872
827	874
827	875
827	876
827	881
827	898
827	911
827	930
827	992
828	829
828	842
828	843
828	844
828	846
828	847
828	848
828	849
828	850
828	851
828	852
828	853
828	854
828	855
828	856
828	857
828	858
828	859
828	860
828	862
828	863
828	865
828	866
828	867
828	869
828	875
828	876
828	877
828	882
828	883
828	885
828	892
828	897
828	898
828	899
828	900
828	902
828	903
828	904
828	905
828	907
828	908
828	909
828	910
828	912
828	913
828	914
828	915
828	917
828	919
828	921
828	922
828	923
828	924
828	931
828	932
828	933
828	934
828	935
828	936
828	937
828	938
828	939
828	940
828	941
828	942
828	943
828	944
828	945
828	946
828	947
828	949
828	950
828	951
828	952
828	954
828	955
828	956
828	957
828	959
828	962
828	963
828	964
828	965
828	966
828	967
828	968
828	969
828	970
828	971
828	972
828	973
828	974
828	975
828	976
828	977
828	978
828	979
828	980
828	981
828	982
828	984
828	985
828	986
828	987
828	988
828	990
828	991
828	997
828	998
828	1001
828	1002
828	1003
828	1004
828	1005
828	1006
828	1007
829	834
829	842
829	843
829	844
829	846
829	847
829	848
829	849
829	850
829	851
829	853
829	854
829	855
829	856
829	857
829	858
829	859
829	862
829	863
829	865
829	866
829	867
829	869
829	881
829	883
829	885
829	892
829	897
829	899
829	900
829	902
829	903
829	907
829	910
829	912
829	913
829	914
829	915
829	916
829	917
829	918
829	921
829	922
829	929
829	930
829	933
829	934
829	935
829	936
829	937
829	938
829	939
829	940
829	941
829	942
829	943
829	944
829	945
829	946
829	947
829	948
829	949
829	951
829	953
829	954
829	957
829	958
829	959
829	960
829	961
829	962
829	963
829	964
829	965
829	966
829	967
829	968
829	969
829	970
829	971
829	972
829	973
829	974
829	975
829	976
829	978
829	979
829	981
829	982
829	983
829	984
829	985
829	986
829	987
829	988
829	989
829	990
829	991
829	999
829	1002
829	1003
829	1007
829	1008
829	1009
829	1010
829	1011
830	831
830	871
830	890
831	841
831	873
831	878
831	887
831	888
831	890
831	894
831	895
832	833
832	834
832	836
832	837
832	838
832	839
832	855
832	860
832	861
832	864
832	868
832	936
833	834
833	836
833	837
833	838
833	839
833	840
833	853
833	860
833	861
833	864
833	896
833	913
834	836
834	837
834	838
834	839
834	840
834	843
834	853
834	855
834	856
834	858
834	860
834	861
834	863
834	864
834	865
834	866
834	867
834	868
834	893
834	896
834	917
834	944
834	945
834	946
834	947
834	948
835	836
835	839
835	840
835	860
835	884
835	891
835	901
835	925
835	926
835	927
835	928
836	837
836	838
836	839
836	840
836	860
836	861
836	864
836	873
836	878
836	884
836	896
836	926
836	927
836	928
837	838
837	839
837	840
837	857
837	860
837	861
837	862
837	864
837	893
837	896
837	927
838	839
838	861
838	864
839	840
839	860
839	861
839	864
839	878
839	884
839	889
839	891
839	893
839	896
839	931
840	861
840	867
840	878
840	884
841	843
841	844
841	845
841	859
841	860
841	863
841	870
841	873
841	879
841	889
841	891
841	899
841	938
842	844
842	846
842	847
842	848
842	849
842	850
842	851
842	852
842	853
842	855
842	856
842	869
842	876
842	877
842	882
842	883
842	885
842	892
842	897
842	898
842	899
842	900
842	902
842	904
842	905
842	906
842	907
842	908
842	909
842	910
842	911
842	912
842	913
842	918
842	919
842	921
842	922
842	924
842	931
842	932
842	937
842	939
842	950
842	951
842	952
842	954
842	955
842	956
842	977
842	995
842	998
842	999
842	1000
843	844
843	846
843	848
843	849
843	850
843	851
843	853
843	855
843	856
843	857
843	858
843	859
843	860
843	862
843	863
843	865
843	866
843	870
843	872
843	874
843	883
843	885
843	899
843	900
843	902
843	903
843	905
843	910
843	913
843	915
843	917
843	921
843	922
843	934
843	935
843	936
843	937
843	938
843	939
843	940
843	941
843	942
843	944
843	949
843	951
843	957
843	967
843	968
843	969
843	970
843	971
843	972
843	973
843	974
843	976
843	979
843	981
843	985
844	848
844	849
844	851
844	853
844	855
844	856
844	857
844	858
844	859
844	860
844	862
844	863
844	865
844	872
844	875
844	882
844	883
844	885
844	897
844	899
844	900
844	902
844	903
844	905
844	907
844	909
844	913
844	923
844	936
844	938
844	942
844	944
844	949
844	966
844	970
844	971
844	974
844	978
845	869
845	870
845	872
845	874
845	912
846	847
846	848
846	849
846	850
846	853
846	855
846	856
846	860
846	869
846	874
846	875
846	876
846	881
846	882
846	885
846	892
846	897
846	898
846	899
846	900
846	902
846	904
846	905
846	906
846	907
846	908
846	909
846	911
846	912
846	915
846	918
846	919
846	920
846	923
846	924
846	930
846	931
846	932
846	936
846	937
846	939
846	950
846	952
846	954
846	955
846	956
846	977
846	992
846	993
846	994
846	995
846	996
846	998
846	999
846	1000
847	848
847	849
847	850
847	851
847	853
847	855
847	856
847	869
847	874
847	875
847	876
847	881
847	882
847	883
847	885
847	892
847	897
847	898
847	899
847	900
847	902
847	904
847	905
847	906
847	907
847	908
847	909
847	910
847	911
847	912
847	913
847	914
847	918
847	919
847	920
847	921
847	923
847	924
847	930
847	931
847	932
847	937
847	938
847	939
847	941
847	944
847	950
847	952
847	954
847	955
847	956
847	977
847	991
847	992
847	993
847	994
847	995
847	996
847	998
847	999
847	1000
848	849
848	850
848	851
848	853
848	854
848	855
848	856
848	859
848	863
848	865
848	866
848	867
848	869
848	874
848	875
848	876
848	877
848	881
848	882
848	883
848	885
848	892
848	897
848	898
848	899
848	900
848	902
848	903
848	904
848	905
848	906
848	907
848	908
848	909
848	910
848	911
848	912
848	913
848	914
848	915
848	918
848	919
848	920
848	921
848	922
848	923
848	924
848	930
848	931
848	932
848	936
848	937
848	939
848	941
848	944
848	949
848	950
848	951
848	952
848	954
848	955
848	956
848	969
848	970
848	972
848	973
848	977
848	979
848	987
848	990
848	992
848	993
848	994
848	995
848	996
848	997
848	998
848	999
848	1000
848	1001
849	850
849	851
849	853
849	855
849	856
849	866
849	869
849	875
849	876
849	881
849	882
849	883
849	885
849	892
849	897
849	898
849	899
849	900
849	902
849	904
849	905
849	906
849	907
849	908
849	909
849	910
849	911
849	912
849	913
849	914
849	915
849	918
849	919
849	920
849	921
849	922
849	923
849	924
849	930
849	931
849	932
849	933
849	934
849	937
849	939
849	944
849	949
849	950
849	952
849	954
849	955
849	956
849	959
849	962
849	972
849	977
849	984
849	987
849	992
849	993
849	994
849	995
849	996
849	997
849	998
849	999
849	1000
849	1006
850	851
850	853
850	855
850	856
850	858
850	859
850	863
850	866
850	867
850	869
850	874
850	875
850	876
850	877
850	881
850	882
850	883
850	885
850	892
850	897
850	898
850	899
850	900
850	902
850	903
850	904
850	905
850	906
850	907
850	908
850	909
850	910
850	911
850	912
850	913
850	915
850	919
850	920
850	921
850	922
850	923
850	924
850	930
850	931
850	932
850	936
850	937
850	939
850	941
850	944
850	949
850	950
850	952
850	954
850	955
850	956
850	962
850	963
850	972
850	976
850	977
850	987
850	993
850	994
850	995
850	996
850	997
850	998
850	1000
850	1001
851	853
851	854
851	855
851	856
851	857
851	859
851	860
851	862
851	863
851	866
851	882
851	883
851	885
851	892
851	897
851	899
851	900
851	902
851	905
851	906
851	907
851	908
851	909
851	910
851	912
851	913
851	914
851	915
851	919
851	921
851	922
851	923
851	929
851	932
851	933
851	934
851	936
851	937
851	939
851	940
851	941
851	942
851	944
851	945
851	947
851	949
851	950
851	951
851	952
851	954
851	959
851	963
851	966
851	967
851	968
851	970
851	971
851	972
851	973
851	974
851	975
851	976
851	977
851	978
851	979
851	980
851	981
851	984
851	985
851	986
851	987
851	988
851	990
851	991
851	997
851	1001
851	1003
851	1004
851	1005
851	1006
852	853
852	855
852	856
852	865
852	877
852	885
852	899
852	914
852	922
852	944
852	949
852	951
852	953
852	959
852	963
852	965
852	1002
853	854
853	855
853	856
853	857
853	858
853	859
853	862
853	863
853	865
853	866
853	867
853	877
853	882
853	883
853	885
853	892
853	897
853	899
853	900
853	902
853	904
853	905
853	907
853	908
853	909
853	910
853	912
853	913
853	914
853	915
853	917
853	919
853	921
853	922
853	923
853	924
853	929
853	932
853	933
853	934
853	935
853	936
853	937
853	938
853	939
853	940
853	941
853	942
853	943
853	944
853	945
853	947
853	949
853	950
853	951
853	952
853	953
853	954
853	956
853	959
853	962
853	963
853	965
853	966
853	967
853	968
853	969
853	970
853	971
853	972
853	973
853	974
853	975
853	976
853	977
853	978
853	979
853	980
853	981
853	982
853	983
853	984
853	985
853	986
853	987
853	988
853	989
853	996
853	997
853	1001
853	1002
853	1003
853	1004
853	1005
853	1006
853	1009
853	1010
854	855
854	856
854	857
854	859
854	863
854	866
854	867
854	877
854	882
854	885
854	899
854	900
854	905
854	907
854	909
854	910
854	913
854	914
854	915
854	917
854	921
854	922
854	929
854	933
854	934
854	935
854	936
854	939
854	940
854	941
854	942
854	943
854	944
854	945
854	947
854	949
854	951
854	954
854	959
854	962
854	963
854	964
854	965
854	966
854	967
854	968
854	969
854	970
854	971
854	972
854	973
854	974
854	975
854	976
854	978
854	979
854	980
854	981
854	982
854	983
854	984
854	985
854	986
854	987
854	988
854	989
854	990
854	997
854	1001
854	1002
854	1003
854	1004
854	1005
854	1006
854	1008
854	1009
854	1010
855	856
855	857
855	858
855	859
855	860
855	862
855	863
855	865
855	866
855	867
855	877
855	882
855	883
855	885
855	899
855	900
855	902
855	904
855	905
855	907
855	908
855	909
855	910
855	913
855	914
855	915
855	917
855	921
855	922
855	929
855	932
855	933
855	934
855	935
855	936
855	939
855	940
855	941
855	942
855	943
855	944
855	945
855	946
855	947
855	948
855	949
855	951
855	954
855	956
855	957
855	959
855	960
855	961
855	962
855	963
855	964
855	965
855	966
855	967
855	968
855	969
855	970
855	971
855	972
855	973
855	974
855	975
855	976
855	978
855	979
855	980
855	981
855	982
855	983
855	984
855	985
855	986
855	987
855	988
855	989
855	990
855	991
855	997
855	1001
855	1002
855	1003
855	1004
855	1005
855	1006
855	1007
855	1008
855	1009
855	1010
856	857
856	858
856	859
856	860
856	862
856	863
856	865
856	866
856	867
856	877
856	882
856	883
856	885
856	892
856	897
856	899
856	900
856	902
856	905
856	907
856	908
856	909
856	910
856	912
856	913
856	914
856	915
856	917
856	919
856	921
856	922
856	924
856	929
856	932
856	933
856	934
856	935
856	936
856	937
856	938
856	939
856	940
856	941
856	942
856	943
856	944
856	945
856	946
856	947
856	948
856	949
856	950
856	951
856	952
856	954
856	956
856	957
856	959
856	961
856	962
856	963
856	964
856	965
856	966
856	967
856	968
856	969
856	970
856	971
856	972
856	973
856	974
856	975
856	976
856	977
856	978
856	979
856	980
856	981
856	982
856	983
856	984
856	985
856	986
856	987
856	988
856	989
856	990
856	991
856	997
856	1001
856	1002
856	1003
856	1004
856	1005
856	1006
856	1007
856	1008
856	1009
856	1010
857	858
857	859
857	860
857	862
857	863
857	865
857	866
857	867
857	877
857	879
857	883
857	885
857	899
857	900
857	903
857	905
857	907
857	910
857	913
857	914
857	915
857	917
857	922
857	929
857	933
857	934
857	935
857	936
857	938
857	940
857	941
857	942
857	943
857	944
857	945
857	946
857	947
857	949
857	951
857	953
857	954
857	957
857	958
857	959
857	960
857	961
857	962
857	963
857	964
857	965
857	966
857	967
857	968
857	969
857	970
857	971
857	972
857	973
857	974
857	975
857	976
857	978
857	979
857	981
857	982
857	983
857	984
857	985
857	986
857	987
857	988
857	990
857	991
857	997
857	1002
857	1005
857	1006
858	859
858	862
858	863
858	866
858	867
858	885
858	903
858	929
858	935
858	936
858	939
858	943
858	945
858	946
858	947
858	949
858	961
858	964
858	965
858	966
858	967
858	971
858	973
858	974
858	976
858	982
858	983
858	984
858	988
859	862
859	863
859	865
859	866
859	867
859	870
859	882
859	899
859	903
859	907
859	910
859	913
859	914
859	917
859	922
859	929
859	933
859	934
859	935
859	936
859	940
859	941
859	942
859	943
859	944
859	945
859	946
859	947
859	948
859	949
859	951
859	954
859	957
859	958
859	959
859	961
859	962
859	963
859	964
859	965
859	966
859	967
859	968
859	969
859	970
859	971
859	972
859	973
859	974
859	975
859	976
859	978
859	979
859	980
859	981
859	982
859	983
859	984
859	985
859	986
859	988
859	989
859	990
859	991
859	1002
859	1003
859	1010
860	861
860	862
860	863
860	865
860	878
860	883
860	884
860	885
860	903
860	926
860	936
860	938
860	940
860	941
860	949
860	971
860	986
861	864
861	868
861	896
861	928
861	961
862	863
862	865
862	866
862	867
862	882
862	903
862	915
862	917
862	936
862	937
862	938
862	942
862	949
862	964
862	972
862	975
863	865
863	866
863	867
863	872
863	882
863	899
863	900
863	907
863	909
863	910
863	913
863	914
863	915
863	917
863	921
863	922
863	929
863	933
863	934
863	935
863	936
863	938
863	939
863	940
863	941
863	942
863	943
863	944
863	945
863	946
863	947
863	949
863	951
863	954
863	956
863	957
863	959
863	960
863	961
863	962
863	963
863	964
863	965
863	966
863	967
863	968
863	969
863	970
863	971
863	972
863	973
863	974
863	975
863	976
863	978
863	979
863	980
863	981
863	982
863	983
863	984
863	985
863	986
863	987
863	988
863	989
863	990
863	991
863	1001
863	1002
863	1003
863	1005
863	1006
863	1007
863	1008
863	1009
865	866
865	867
865	877
865	882
865	883
865	885
865	899
865	900
865	902
865	903
865	905
865	907
865	917
865	921
865	922
865	935
865	938
865	942
865	943
865	944
865	949
865	964
865	965
865	966
865	967
865	968
865	970
865	972
865	973
865	975
865	976
865	980
865	986
865	1008
866	867
866	885
866	897
866	899
866	900
866	905
866	907
866	908
866	910
866	913
866	914
866	915
866	917
866	921
866	922
866	929
866	933
866	934
866	935
866	936
866	939
866	940
866	941
866	942
866	943
866	944
866	945
866	946
866	947
866	948
866	949
866	951
866	953
866	954
866	957
866	958
866	959
866	960
866	961
866	962
866	963
866	964
866	965
866	966
866	967
866	968
866	969
866	970
866	971
866	972
866	973
866	974
866	975
866	976
866	978
866	979
866	980
866	981
866	982
866	983
866	984
866	985
866	986
866	987
866	988
866	989
866	990
866	991
866	997
866	1001
866	1002
866	1003
866	1004
866	1005
866	1007
866	1008
866	1009
866	1010
866	1011
866	1013
866	1014
867	883
867	885
867	892
867	899
867	900
867	902
867	904
867	905
867	908
867	910
867	912
867	915
867	917
867	918
867	919
867	920
867	922
867	924
867	929
867	933
867	934
867	935
867	936
867	937
867	940
867	942
867	943
867	944
867	945
867	946
867	947
867	948
867	949
867	951
867	954
867	957
867	958
867	959
867	960
867	961
867	962
867	963
867	964
867	965
867	966
867	967
867	968
867	969
867	970
867	974
867	975
867	976
867	979
867	982
867	983
867	984
867	985
867	986
867	990
867	991
867	994
867	999
867	1002
867	1008
867	1011
867	1013
867	1014
868	916
868	917
868	933
868	935
868	962
868	965
868	966
868	968
869	870
869	872
869	874
869	875
869	876
869	879
869	881
869	883
869	885
869	898
869	900
869	909
869	911
869	912
869	919
869	924
869	930
869	931
869	992
869	993
870	872
870	874
870	876
870	879
872	878
872	879
872	889
872	891
872	982
873	878
873	879
873	880
873	886
873	887
873	888
873	890
873	894
873	895
874	875
874	876
874	881
874	897
874	898
874	911
874	912
874	920
874	930
874	931
874	956
874	992
874	993
874	995
874	998
875	876
875	881
875	883
875	897
875	898
875	900
875	907
875	911
875	912
875	920
875	924
875	930
875	931
875	932
875	950
875	955
875	956
875	992
875	993
875	995
875	998
875	999
876	881
876	885
876	897
876	898
876	899
876	900
876	902
876	904
876	905
876	906
876	907
876	911
876	912
876	918
876	919
876	920
876	924
876	930
876	931
876	937
876	950
876	955
876	956
876	977
876	992
876	993
876	994
876	995
876	998
876	999
877	882
877	885
877	899
877	900
877	905
877	907
877	908
877	914
877	922
877	923
877	932
877	944
877	950
877	951
877	953
877	963
877	1002
878	879
878	880
878	884
878	886
878	887
878	888
878	889
878	894
878	895
879	886
879	887
879	889
880	886
880	887
880	888
881	897
881	898
881	900
881	904
881	906
881	908
881	911
881	912
881	918
881	919
881	920
881	924
881	930
881	931
881	932
881	937
881	950
881	955
881	956
881	977
881	992
881	993
881	994
881	995
881	999
881	1000
882	883
882	885
882	892
882	897
882	898
882	899
882	900
882	902
882	905
882	906
882	907
882	908
882	909
882	910
882	911
882	912
882	913
882	914
882	915
882	919
882	921
882	922
882	923
882	924
882	932
882	933
882	937
882	939
882	940
882	941
882	944
882	947
882	949
882	950
882	951
882	952
882	954
882	956
882	963
882	968
882	969
882	970
882	971
882	972
882	975
882	977
882	979
882	980
882	984
882	987
882	988
882	996
882	997
882	1000
882	1001
882	1003
882	1004
882	1005
882	1006
883	885
883	899
883	900
883	902
883	903
883	905
883	907
883	910
883	912
883	919
883	921
883	922
883	923
883	932
883	936
883	937
883	938
883	941
883	943
883	951
883	952
883	954
883	956
883	972
883	991
883	1001
884	886
884	887
884	925
885	892
885	897
885	898
885	899
885	900
885	902
885	904
885	905
885	906
885	907
885	908
885	909
885	910
885	911
885	912
885	913
885	914
885	915
885	917
885	919
885	920
885	921
885	922
885	923
885	924
885	932
885	934
885	935
885	936
885	937
885	939
885	940
885	941
885	944
885	949
885	950
885	951
885	952
885	954
885	955
885	956
885	957
885	959
885	962
885	963
885	968
885	969
885	970
885	971
885	972
885	974
885	977
885	978
885	979
885	985
885	987
885	990
885	992
885	993
885	995
885	996
885	998
885	1000
885	1001
885	1005
886	887
886	888
886	889
886	894
887	888
887	889
887	890
887	894
887	895
888	889
888	890
888	894
888	895
890	895
892	897
892	898
892	899
892	900
892	902
892	905
892	907
892	908
892	909
892	910
892	912
892	913
892	919
892	923
892	924
892	932
892	937
892	941
892	950
892	952
892	955
892	972
892	977
892	996
892	998
892	1000
893	901
894	895
896	927
896	928
897	898
897	899
897	900
897	902
897	904
897	905
897	906
897	907
897	908
897	909
897	910
897	911
897	912
897	913
897	918
897	919
897	920
897	921
897	922
897	923
897	924
897	930
897	931
897	932
897	936
897	937
897	939
897	944
897	950
897	952
897	954
897	955
897	956
897	959
897	963
897	971
897	976
897	977
897	984
897	985
897	992
897	993
897	994
897	995
897	996
897	998
897	999
897	1000
897	1002
898	899
898	900
898	904
898	905
898	906
898	907
898	908
898	911
898	912
898	918
898	919
898	920
898	921
898	923
898	924
898	930
898	931
898	932
898	937
898	950
898	952
898	954
898	955
898	956
898	977
898	992
898	993
898	994
898	995
898	996
898	998
898	999
898	1000
899	900
899	902
899	903
899	904
899	905
899	906
899	907
899	908
899	909
899	910
899	911
899	912
899	913
899	914
899	915
899	917
899	919
899	921
899	922
899	923
899	924
899	932
899	933
899	934
899	935
899	936
899	937
899	939
899	940
899	941
899	942
899	943
899	944
899	945
899	946
899	947
899	949
899	950
899	951
899	952
899	953
899	954
899	955
899	956
899	957
899	959
899	962
899	963
899	964
899	965
899	966
899	967
899	968
899	969
899	970
899	971
899	972
899	973
899	974
899	975
899	976
899	977
899	978
899	979
899	980
899	981
899	982
899	983
899	984
899	985
899	986
899	987
899	988
899	990
899	991
899	992
899	996
899	997
899	998
899	1001
899	1002
899	1003
899	1004
899	1005
899	1006
899	1007
900	902
900	903
900	904
900	905
900	906
900	907
900	908
900	909
900	910
900	911
900	912
900	913
900	914
900	915
900	917
900	918
900	919
900	920
900	921
900	922
900	923
900	924
900	930
900	931
900	932
900	933
900	934
900	935
900	936
900	937
900	938
900	939
900	940
900	941
900	944
900	947
900	949
900	950
900	951
900	952
900	954
900	955
900	956
900	959
900	962
900	963
900	966
900	967
900	968
900	969
900	970
900	971
900	972
900	974
900	975
900	976
900	977
900	980
900	984
900	985
900	987
900	989
900	992
900	993
900	994
900	995
900	996
900	997
900	998
900	999
900	1000
900	1001
900	1004
901	917
902	903
902	905
902	907
902	908
902	909
902	910
902	912
902	919
902	922
902	924
902	932
902	936
902	938
902	944
902	950
902	954
902	959
902	963
902	984
903	905
903	938
903	941
903	954
903	968
903	969
903	975
903	985
904	905
904	906
904	908
904	911
904	912
904	918
904	919
904	920
904	923
904	924
904	930
904	931
904	932
904	937
904	950
904	952
904	955
904	956
904	977
904	993
904	994
904	995
904	996
904	998
904	999
904	1000
905	906
905	907
905	908
905	909
905	910
905	912
905	913
905	914
905	915
905	917
905	919
905	921
905	922
905	923
905	924
905	931
905	932
905	934
905	935
905	936
905	937
905	939
905	940
905	941
905	942
905	944
905	945
905	949
905	950
905	951
905	952
905	954
905	955
905	956
905	964
905	966
905	968
905	970
905	971
905	972
905	974
905	976
905	977
905	978
905	980
905	981
905	984
905	987
905	988
905	989
905	994
905	996
905	997
905	998
905	1000
905	1001
905	1004
906	908
906	911
906	912
906	919
906	920
906	924
906	931
906	932
906	937
906	950
906	952
906	955
906	956
906	977
906	996
906	998
906	999
906	1000
907	908
907	909
907	910
907	912
907	913
907	914
907	915
907	917
907	919
907	921
907	922
907	923
907	924
907	931
907	932
907	934
907	936
907	937
907	938
907	939
907	940
907	941
907	942
907	944
907	945
907	947
907	949
907	950
907	951
907	952
907	954
907	955
907	966
907	970
907	971
907	972
907	974
907	976
907	977
907	978
907	979
907	980
907	984
907	987
907	988
907	992
907	996
907	997
907	1001
907	1004
907	1005
907	1006
908	909
908	910
908	911
908	912
908	913
908	914
908	915
908	917
908	918
908	919
908	921
908	922
908	923
908	924
908	931
908	932
908	935
908	936
908	937
908	938
908	939
908	940
908	941
908	944
908	947
908	949
908	950
908	951
908	952
908	954
908	955
908	956
908	959
908	966
908	968
908	971
908	976
908	977
908	978
908	984
908	987
908	996
908	997
908	1000
908	1001
908	1005
909	910
909	912
909	913
909	914
909	915
909	919
909	921
909	922
909	923
909	932
909	936
909	937
909	939
909	941
909	944
909	949
909	950
909	952
909	954
909	967
909	969
909	970
909	971
909	972
909	974
909	977
909	978
909	980
909	981
909	987
909	988
909	997
909	1001
909	1004
909	1005
910	912
910	913
910	914
910	915
910	917
910	921
910	922
910	923
910	929
910	932
910	933
910	934
910	935
910	936
910	937
910	939
910	940
910	941
910	942
910	943
910	944
910	945
910	947
910	949
910	950
910	951
910	953
910	954
910	955
910	956
910	957
910	959
910	962
910	963
910	964
910	965
910	966
910	967
910	968
910	969
910	970
910	971
910	972
910	973
910	974
910	975
910	976
910	978
910	979
910	980
910	981
910	984
910	985
910	986
910	987
910	988
910	989
910	996
910	997
910	1001
910	1003
910	1004
910	1005
910	1006
910	1009
910	1010
911	912
911	913
911	918
911	919
911	920
911	923
911	924
911	930
911	931
911	932
911	952
911	955
911	956
911	977
911	992
911	993
911	994
911	995
911	996
911	998
911	999
911	1000
912	918
912	919
912	920
912	923
912	924
912	930
912	931
912	932
912	937
912	939
912	950
912	952
912	954
912	955
912	956
912	977
912	992
912	993
912	994
912	995
912	996
912	998
912	999
912	1000
913	914
913	915
913	921
913	922
913	933
913	934
913	935
913	937
913	939
913	940
913	941
913	942
913	943
913	944
913	945
913	947
913	949
913	950
913	951
913	953
913	954
913	962
913	963
913	966
913	967
913	968
913	969
913	970
913	971
913	972
913	973
913	974
913	975
913	976
913	978
913	979
913	980
913	981
913	985
913	987
913	988
913	989
913	997
913	1001
913	1003
913	1004
913	1005
913	1006
913	1009
913	1010
914	915
914	917
914	921
914	922
914	933
914	934
914	935
914	936
914	939
914	940
914	941
914	942
914	943
914	944
914	945
914	947
914	949
914	951
914	953
914	954
914	959
914	962
914	963
914	964
914	965
914	966
914	968
914	970
914	971
914	972
914	973
914	975
914	976
914	979
914	980
914	984
914	985
914	986
914	987
914	988
914	989
914	990
914	991
914	1001
914	1002
914	1003
914	1004
914	1005
914	1006
914	1009
915	917
915	919
915	921
915	922
915	929
915	932
915	933
915	934
915	935
915	936
915	939
915	940
915	941
915	942
915	943
915	944
915	945
915	947
915	949
915	951
915	954
915	959
915	961
915	962
915	963
915	964
915	965
915	966
915	967
915	968
915	969
915	970
915	971
915	972
915	973
915	974
915	975
915	976
915	977
915	978
915	979
915	980
915	981
915	982
915	984
915	985
915	986
915	987
915	988
915	989
915	990
915	997
915	1001
915	1002
915	1003
915	1004
915	1005
915	1006
915	1008
915	1010
916	917
916	962
916	967
917	921
917	922
917	933
917	934
917	935
917	936
917	939
917	940
917	941
917	942
917	943
917	945
917	946
917	947
917	948
917	949
917	951
917	954
917	956
917	957
917	958
917	959
917	962
917	963
917	964
917	965
917	966
917	967
917	968
917	969
917	970
917	974
917	975
917	976
917	981
917	983
917	984
917	985
917	986
917	990
917	991
917	1002
917	1004
917	1005
917	1007
917	1008
917	1009
918	920
918	924
918	930
918	931
918	932
918	950
918	955
918	956
918	977
918	992
918	993
918	994
918	995
918	998
918	999
918	1000
919	922
919	923
919	924
919	930
919	931
919	932
919	936
919	937
919	939
919	950
919	952
919	954
919	955
919	956
919	977
919	994
919	995
919	996
919	998
919	999
919	1000
920	924
920	930
920	931
920	932
920	952
920	955
920	956
920	977
920	992
920	993
920	994
920	995
920	999
920	1000
921	922
921	932
921	934
921	937
921	939
921	940
921	941
921	943
921	944
921	945
921	949
921	950
921	951
921	954
921	962
921	963
921	967
921	969
921	970
921	971
921	972
921	973
921	974
921	976
921	977
921	978
921	980
921	987
921	989
921	997
921	1001
921	1004
921	1005
922	924
922	929
922	932
922	933
922	934
922	935
922	936
922	937
922	939
922	940
922	941
922	942
922	943
922	944
922	945
922	947
922	949
922	950
922	951
922	953
922	954
922	959
922	962
922	963
922	964
922	965
922	966
922	967
922	968
922	969
922	970
922	971
922	972
922	973
922	974
922	975
922	976
922	977
922	978
922	980
922	981
922	983
922	984
922	985
922	986
922	987
922	988
922	989
922	990
922	992
922	997
922	1001
922	1002
922	1003
922	1004
922	1005
922	1006
922	1009
922	1010
923	930
923	931
923	932
923	937
923	950
923	952
923	954
923	955
923	956
923	977
923	996
923	998
924	930
924	931
924	932
924	937
924	950
924	952
924	955
924	956
924	977
924	992
924	993
924	994
924	995
924	998
924	999
924	1000
925	926
925	927
925	928
926	927
926	928
927	928
929	936
929	940
929	943
929	945
929	946
929	949
929	951
929	960
929	961
929	966
929	967
929	968
929	970
929	972
929	973
929	974
929	976
929	982
929	983
929	990
930	931
930	932
930	937
930	952
930	955
930	956
930	977
930	992
930	993
930	994
930	995
930	996
930	999
930	1000
931	932
931	937
931	950
931	952
931	955
931	956
931	977
931	992
931	993
931	994
931	995
931	996
931	999
931	1000
932	937
932	939
932	944
932	949
932	950
932	952
932	954
932	955
932	956
932	977
932	992
932	993
932	994
932	995
932	996
932	998
932	999
932	1000
933	934
933	935
933	936
933	940
933	941
933	942
933	943
933	944
933	945
933	946
933	947
933	948
933	949
933	951
933	954
933	959
933	962
933	963
933	964
933	965
933	966
933	967
933	968
933	969
933	970
933	971
933	972
933	973
933	974
933	975
933	976
933	978
933	979
933	980
933	981
933	984
933	985
933	986
933	987
933	988
933	989
933	990
933	991
933	1002
933	1005
933	1007
933	1008
933	1009
933	1010
933	1012
934	935
934	936
934	939
934	940
934	941
934	942
934	943
934	944
934	945
934	946
934	947
934	948
934	949
934	951
934	953
934	954
934	959
934	962
934	963
934	964
934	965
934	966
934	967
934	968
934	969
934	970
934	971
934	972
934	973
934	974
934	975
934	976
934	978
934	979
934	980
934	981
934	982
934	983
934	984
934	985
934	986
934	987
934	988
934	989
934	990
934	991
934	997
934	1001
934	1002
934	1003
934	1004
934	1007
934	1008
934	1009
934	1010
934	1011
935	936
935	940
935	941
935	942
935	943
935	944
935	945
935	946
935	947
935	949
935	951
935	954
935	957
935	959
935	962
935	963
935	964
935	965
935	966
935	967
935	968
935	969
935	970
935	971
935	972
935	973
935	974
935	975
935	976
935	978
935	979
935	980
935	981
935	983
935	984
935	985
935	986
935	987
935	988
935	989
935	990
935	991
935	1001
935	1002
935	1003
935	1005
935	1006
935	1007
935	1008
935	1009
935	1010
936	938
936	940
936	941
936	942
936	943
936	944
936	945
936	946
936	947
936	948
936	949
936	951
936	953
936	954
936	956
936	957
936	958
936	959
936	960
936	961
936	962
936	963
936	964
936	965
936	966
936	967
936	968
936	969
936	970
936	971
936	972
936	973
936	974
936	975
936	976
936	978
936	979
936	980
936	981
936	982
936	983
936	984
936	985
936	986
936	988
936	989
936	990
936	991
936	997
936	1001
936	1002
936	1003
936	1004
936	1005
936	1007
936	1008
936	1009
936	1010
936	1011
936	1013
936	1014
937	939
937	940
937	944
937	947
937	949
937	950
937	952
937	954
937	955
937	956
937	970
937	971
937	977
937	987
937	995
937	996
937	998
937	999
937	1000
938	949
939	940
939	941
939	944
939	945
939	947
939	949
939	950
939	951
939	952
939	954
939	955
939	970
939	971
939	972
939	976
939	977
939	978
939	979
939	980
939	981
939	984
939	987
939	988
939	997
939	1001
939	1003
939	1004
939	1005
940	941
940	942
940	943
940	944
940	945
940	946
940	947
940	948
940	949
940	951
940	953
940	954
940	959
940	962
940	963
940	964
940	965
940	966
940	967
940	968
940	969
940	970
940	971
940	972
940	973
940	974
940	975
940	976
940	978
940	979
940	980
940	981
940	982
940	983
940	984
940	985
940	986
940	987
940	988
940	989
940	990
940	991
940	997
940	1001
940	1002
940	1003
940	1004
940	1005
940	1006
940	1007
940	1008
940	1009
940	1010
941	942
941	943
941	944
941	945
941	947
941	949
941	950
941	951
941	953
941	954
941	956
941	959
941	962
941	963
941	964
941	965
941	966
941	967
941	968
941	969
941	970
941	971
941	972
941	973
941	974
941	975
941	976
941	978
941	979
941	980
941	981
941	984
941	986
941	987
941	988
941	989
941	997
941	1001
941	1003
941	1004
941	1005
941	1006
941	1009
941	1010
942	943
942	944
942	945
942	946
942	947
942	948
942	949
942	951
942	954
942	957
942	959
942	961
942	962
942	963
942	964
942	965
942	966
942	967
942	968
942	969
942	970
942	971
942	972
942	973
942	974
942	975
942	976
942	978
942	979
942	980
942	981
942	982
942	983
942	984
942	985
942	986
942	987
942	988
942	989
942	990
942	991
942	997
942	1001
942	1002
942	1003
942	1004
942	1005
942	1006
942	1007
942	1008
942	1009
942	1010
942	1011
942	1012
943	944
943	945
943	946
943	947
943	948
943	949
943	951
943	957
943	958
943	959
943	960
943	961
943	962
943	963
943	964
943	965
943	966
943	967
943	968
943	969
943	970
943	971
943	972
943	973
943	974
943	975
943	976
943	978
943	979
943	980
943	981
943	982
943	983
943	984
943	985
943	986
943	988
943	989
943	990
943	991
943	1002
943	1007
943	1008
943	1009
943	1010
943	1011
943	1013
944	945
944	947
944	949
944	951
944	953
944	954
944	959
944	963
944	964
944	965
944	966
944	967
944	968
944	969
944	970
944	971
944	972
944	973
944	974
944	975
944	976
944	978
944	979
944	980
944	981
944	983
944	984
944	985
944	986
944	987
944	988
944	989
944	997
944	1001
944	1002
944	1003
944	1004
944	1005
944	1006
944	1010
945	946
945	947
945	948
945	949
945	951
945	954
945	957
945	959
945	962
945	963
945	964
945	965
945	966
945	967
945	968
945	969
945	970
945	971
945	972
945	973
945	974
945	975
945	976
945	978
945	979
945	980
945	981
945	982
945	983
945	984
945	985
945	986
945	987
945	988
945	989
945	990
945	991
945	997
945	1001
945	1002
945	1003
945	1004
945	1005
945	1006
945	1007
945	1008
945	1009
945	1010
946	947
946	948
946	949
946	954
946	957
946	958
946	959
946	960
946	961
946	962
946	964
946	967
946	968
946	970
946	971
946	973
946	974
946	975
946	976
946	978
946	982
946	983
946	984
946	985
946	986
946	990
946	991
946	1011
946	1013
946	1014
947	948
947	949
947	951
947	954
947	957
947	958
947	959
947	962
947	963
947	964
947	965
947	966
947	967
947	968
947	969
947	970
947	971
947	972
947	973
947	974
947	975
947	976
947	978
947	979
947	980
947	981
947	982
947	983
947	984
947	985
947	986
947	988
947	989
947	990
947	991
947	997
947	1002
947	1004
947	1005
947	1007
947	1008
947	1009
947	1010
947	1011
947	1012
948	957
948	958
948	959
948	960
948	961
948	966
948	974
948	976
948	981
948	982
948	983
948	984
948	985
948	990
948	991
948	1011
948	1013
948	1014
949	950
949	951
949	953
949	954
949	959
949	962
949	963
949	964
949	965
949	966
949	967
949	968
949	969
949	970
949	971
949	972
949	973
949	974
949	975
949	976
949	978
949	979
949	980
949	981
949	983
949	984
949	985
949	986
949	987
949	988
949	989
949	990
949	991
949	997
949	1001
949	1002
949	1003
949	1004
949	1005
949	1006
949	1007
949	1009
949	1010
950	952
950	954
950	955
950	956
950	977
950	992
950	996
950	998
950	1000
950	1004
951	953
951	954
951	959
951	962
951	963
951	964
951	965
951	966
951	967
951	968
951	969
951	970
951	971
951	972
951	973
951	974
951	975
951	976
951	978
951	980
951	981
951	982
951	984
951	985
951	986
951	988
951	989
951	990
951	991
951	997
951	1002
951	1005
951	1006
951	1007
951	1009
951	1010
952	954
952	955
952	956
952	977
952	994
952	996
952	998
952	1004
953	954
953	959
953	963
953	966
953	970
953	986
953	1002
954	957
954	959
954	962
954	963
954	964
954	965
954	966
954	967
954	968
954	969
954	970
954	971
954	972
954	973
954	974
954	975
954	976
954	978
954	979
954	980
954	981
954	984
954	985
954	986
954	987
954	988
954	989
954	997
954	1001
954	1002
954	1003
954	1004
954	1005
954	1006
954	1007
954	1009
955	956
955	977
955	992
955	993
955	994
955	995
955	998
955	999
955	1000
956	977
956	992
956	993
956	994
956	995
956	996
956	998
956	999
956	1000
957	958
957	960
957	961
957	964
957	965
957	968
957	976
957	978
957	982
957	983
957	984
957	985
957	990
957	991
957	1009
957	1011
957	1012
957	1013
957	1014
958	960
958	961
958	976
958	982
958	983
958	984
958	985
958	990
958	991
958	1011
958	1012
958	1013
958	1014
959	962
959	963
959	964
959	965
959	966
959	967
959	968
959	969
959	970
959	971
959	973
959	974
959	975
959	976
959	979
959	980
959	981
959	983
959	984
959	985
959	986
959	987
959	988
959	990
959	991
959	1001
959	1002
959	1007
959	1008
959	1009
959	1010
960	961
960	976
960	982
960	983
960	984
960	990
960	991
960	1014
961	971
961	976
961	982
961	983
961	984
961	990
961	991
962	963
962	964
962	965
962	966
962	967
962	968
962	969
962	970
962	971
962	972
962	973
962	974
962	975
962	976
962	978
962	979
962	980
962	981
962	982
962	984
962	985
962	986
962	988
962	989
962	990
962	991
962	997
962	1002
962	1003
962	1004
962	1005
962	1007
962	1008
962	1009
962	1010
963	964
963	965
963	966
963	967
963	968
963	970
963	971
963	972
963	973
963	974
963	975
963	976
963	978
963	979
963	980
963	981
963	984
963	985
963	986
963	988
963	990
963	997
963	1002
963	1008
963	1009
964	965
964	966
964	967
964	968
964	969
964	970
964	972
964	973
964	974
964	975
964	976
964	979
964	980
964	981
964	984
964	985
964	986
964	990
964	991
964	997
964	1002
964	1007
964	1008
964	1009
965	966
965	967
965	968
965	969
965	970
965	971
965	973
965	974
965	975
965	976
965	978
965	980
965	981
965	984
965	985
965	986
965	988
965	990
965	991
965	1002
965	1008
965	1009
965	1010
966	967
966	968
966	969
966	970
966	971
966	972
966	973
966	974
966	975
966	976
966	978
966	979
966	980
966	981
966	982
966	983
966	984
966	985
966	986
966	987
966	988
966	990
966	991
966	997
966	1001
966	1002
966	1003
966	1005
966	1006
966	1007
966	1008
966	1009
966	1010
967	968
967	969
967	970
967	971
967	972
967	973
967	974
967	975
967	976
967	978
967	979
967	980
967	981
967	984
967	985
967	986
967	987
967	988
967	989
967	990
967	991
967	997
967	1001
967	1002
967	1003
967	1005
967	1007
967	1008
967	1010
968	969
968	970
968	971
968	972
968	973
968	974
968	975
968	976
968	978
968	979
968	980
968	981
968	983
968	984
968	985
968	986
968	987
968	988
968	989
968	990
968	991
968	997
968	1001
968	1002
968	1003
968	1004
968	1005
968	1006
968	1007
968	1008
968	1009
968	1010
969	970
969	971
969	972
969	973
969	974
969	975
969	976
969	978
969	979
969	980
969	981
969	982
969	984
969	985
969	986
969	987
969	988
969	989
969	990
969	997
969	1001
969	1003
969	1005
969	1006
969	1010
970	971
970	972
970	973
970	974
970	975
970	976
970	978
970	979
970	980
970	981
970	982
970	983
970	984
970	985
970	986
970	987
970	988
970	989
970	990
970	991
970	997
970	1001
970	1002
970	1003
970	1004
970	1005
970	1006
970	1009
970	1010
971	972
971	973
971	974
971	975
971	976
971	978
971	979
971	980
971	981
971	983
971	984
971	985
971	986
971	987
971	988
971	989
971	990
971	997
971	1001
971	1002
971	1003
971	1004
971	1005
971	1006
971	1009
971	1010
972	973
972	974
972	975
972	976
972	978
972	979
972	980
972	981
972	984
972	986
972	987
972	988
972	989
972	997
972	1001
972	1003
972	1004
972	1005
972	1006
972	1009
972	1010
973	974
973	975
973	976
973	978
973	979
973	980
973	981
973	984
973	985
973	986
973	987
973	988
973	989
973	990
973	991
973	1003
973	1005
973	1006
973	1007
973	1010
974	975
974	976
974	978
974	979
974	980
974	981
974	982
974	983
974	984
974	985
974	986
974	987
974	988
974	989
974	990
974	991
974	997
974	1001
974	1003
974	1004
974	1005
974	1006
974	1007
974	1009
974	1010
975	976
975	978
975	979
975	980
975	981
975	984
975	985
975	986
975	988
975	989
975	990
975	991
975	997
975	1001
975	1002
975	1003
975	1004
975	1005
975	1007
975	1008
975	1009
975	1010
976	978
976	979
976	980
976	981
976	982
976	983
976	984
976	985
976	986
976	987
976	988
976	989
976	990
976	991
976	997
976	1001
976	1002
976	1004
976	1005
976	1007
976	1008
976	1009
976	1010
976	1011
976	1012
976	1013
976	1014
977	992
977	993
977	994
977	995
977	996
977	999
977	1000
978	979
978	980
978	981
978	982
978	984
978	985
978	987
978	988
978	989
978	990
978	997
978	1001
978	1003
978	1004
978	1005
978	1006
978	1009
978	1010
978	1011
979	980
979	981
979	982
979	983
979	984
979	985
979	986
979	987
979	988
979	989
979	990
979	997
979	1001
979	1003
979	1004
979	1005
979	1006
979	1007
979	1009
979	1010
980	981
980	984
980	987
980	988
980	989
980	997
980	1001
980	1002
980	1003
980	1004
980	1005
980	1006
980	1007
980	1010
981	983
981	984
981	985
981	986
981	987
981	988
981	989
981	990
981	991
981	1004
981	1007
981	1009
981	1010
982	983
982	984
982	985
982	988
982	990
982	991
982	1013
983	984
983	985
983	988
983	990
983	991
984	985
984	986
984	988
984	989
984	990
984	991
984	1001
984	1002
984	1005
984	1007
984	1008
984	1009
984	1011
984	1012
984	1013
984	1014
985	986
985	987
985	988
985	990
985	991
985	1001
985	1002
985	1005
985	1006
985	1007
985	1008
985	1009
985	1010
985	1011
985	1012
985	1013
986	989
986	990
986	991
986	997
986	1002
986	1008
986	1009
986	1010
987	988
987	989
987	997
987	1001
987	1003
987	1004
987	1005
987	1006
988	989
988	990
988	997
988	1001
988	1002
988	1003
988	1004
988	1005
988	1006
988	1007
988	1010
989	991
989	1001
989	1003
989	1004
989	1005
989	1006
989	1010
990	991
990	1002
990	1003
990	1011
990	1014
991	1007
991	1009
991	1011
991	1013
991	1014
992	993
992	994
992	995
992	999
992	1000
993	994
993	995
993	998
993	999
993	1000
994	995
994	996
994	999
994	1000
995	999
995	1000
996	998
997	1001
997	1003
997	1004
997	1005
997	1006
998	1000
999	1000
1001	1003
1001	1004
1001	1005
1001	1006
1002	1008
1002	1009
1003	1004
1003	1005
1003	1006
1003	1010
1004	1005
1004	1006
1005	1006
1006	1010
1007	1009
1007	1011
1011	1012
1011	1013
1011	1014
1012	1013
1013	1014
